 vasp.5.4.4.18Apr17-6-g9f103f2a35 (build Aug 09 2018 16:20:53) complex

 executed on             LinuxIFC date 2020.04.12  14:16:29

 INCAR:
 POTCAR:    PAW_PBE Nb_sv 25May2007
 POTCAR:    PAW_PBE Mo 08Apr2002
 POTCAR:    PAW_PBE Ta 17Jan2003
 POTCAR:    PAW_PBE Ti 08Apr2002
 POTCAR:    PAW_PBE W 08Apr2002
 POTCAR:    PAW_PBE Nb_sv 25May2007
   VRHFIN =Nb: 4p5s4d

   TITEL  = PAW_PBE Nb_sv 25May2007
   POMASS =   92.910; ZVAL   =   13.000    mass and valenz
   ENMAX  =  293.235; ENMIN  =  219.927 eV

 POTCAR:    PAW_PBE Mo 08Apr2002
   VRHFIN =Mo: 4p5s4d

   TITEL  = PAW_PBE Mo 08Apr2002
   POMASS =   95.940; ZVAL   =    6.000    mass and valenz
   ENMAX  =  224.584; ENMIN  =  168.438 eV

 POTCAR:    PAW_PBE Ta 17Jan2003
   VRHFIN =Ta:  6s5d

   TITEL  = PAW_PBE Ta 17Jan2003
   POMASS =  180.948; ZVAL   =    5.000    mass and valenz
   ENMAX  =  223.667; ENMIN  =  167.750 eV

 POTCAR:    PAW_PBE Ti 08Apr2002
   VRHFIN =Ti: d3 s1

[...]

 POTCAR:    PAW_PBE W 08Apr2002
   VRHFIN =W : 6s5d

   TITEL  = PAW_PBE W 08Apr2002
   POMASS =  183.850; ZVAL   =    6.000    mass and valenz
   ENMAX  =  223.057; ENMIN  =  167.293 eV

 Optimization of the real space projectors (new method)

 maximal supplied QI-value         = 15.68
 optimisation between [QCUT,QGAM] = [ 10.20, 20.39] = [ 29.11,116.42] Ry
 Optimized for a Real-space Cutoff    1.60 Angstroem

   l    n(q)    QCUT    max X(q) W(low)/X(q) W(high)/X(q)  e(spline)
   0     10    10.195    10.201    0.19E-04    0.50E-05    0.39E-07
   0     10    10.195     8.174    0.27E-04    0.89E-05    0.77E-07
   1      9    10.195     3.488    0.83E-04    0.69E-04    0.10E-06
   1      9    10.195     4.917    0.46E-03    0.32E-03    0.50E-06
   2      9    10.195   153.744    0.18E-03    0.91E-03    0.79E-06
   2      9    10.195   126.342    0.18E-03    0.90E-03    0.79E-06
 Optimization of the real space projectors (new method)

[...]

   l    n(q)    QCUT    max X(q) W(low)/X(q) W(high)/X(q)  e(spline)
   2      9    10.197    49.363    0.30E-03    0.51E-03    0.44E-06
   2      9    10.197    47.669    0.29E-03    0.50E-03    0.43E-06
   0     10    10.197    26.374    0.13E-03    0.16E-03    0.99E-07
   0     10    10.197    11.549    0.10E-03    0.13E-03    0.84E-07
   1      9    10.197     9.492    0.22E-04    0.44E-04    0.50E-07
 Optimization of the real space projectors (new method)

 maximal supplied QI-value         = 13.61
 optimisation between [QCUT,QGAM] = [ 10.20, 20.41] = [ 29.16,116.64] Ry
 Optimized for a Real-space Cutoff    1.55 Angstroem

   l    n(q)    QCUT    max X(q) W(low)/X(q) W(high)/X(q)  e(spline)
   2      9    10.205   130.855    0.41E-03    0.84E-03    0.64E-06
   2      9    10.205   114.007    0.41E-03    0.84E-03    0.64E-06
   0      9    10.205    84.709    0.58E-04    0.61E-04    0.12E-06
   0      9    10.205    49.163    0.53E-04    0.55E-04    0.11E-06
   1      9    10.205    15.765    0.16E-03    0.32E-03    0.27E-06
   1      9    10.205    10.638    0.14E-03    0.24E-03    0.21E-06

  PAW_PBE Nb_sv 25May2007               :
  PAW_PBE Mo 08Apr2002                  :
  PAW_PBE Ta 17Jan2003                  :
  PAW_PBE Ti 08Apr2002                  :
  PAW_PBE W 08Apr2002                   :

 POSCAR: Nb - Mo - Ta - Ti - W SQS-30 BCC
  positions in direct lattice
 exchange correlation table for  LEXCH =       14
   RHO(1)=    0.500       N(1)  =     2000
   RHO(2)=  100.500       N(2)  =     4000

 VTST: version 3.2, (02/03/18)

 CHAIN: initializing optimizer

 OPT: Using VASP QUASI-newton optimizer
 CHAIN: Read ICHAIN            0

 POSCAR: Nb - Mo - Ta - Ti - W SQS-30 BCC
  positions in direct lattice

 ion  position               nearest neighbor table
   1  0.000  0.000  0.000-  12 2.79  13 2.79  21 2.79  28 2.79  24 2.79  14 2.79   4 2.79   5 2.79
                            25 3.22   7 3.22   7 3.22
   2  0.833  0.000  0.333-  28 2.79  29 2.79  23 2.79  13 2.79   4 2.79   9 2.79  14 2.79  27 2.79
                            16 3.22   8 3.22   8 3.22  15 3.22
   3  0.100  0.400  0.600-  27 2.79  10 2.79  21 2.79   9 2.79   5 2.79  17 2.79  11 2.79  22 2.79
                            29 3.22  18 3.22  18 3.22
   4  0.200  0.800  0.200-   8 2.79  25 2.79  17 2.79  22 2.79  26 2.79   7 2.79   2 2.79   1 2.79
                            29 3.22  28 3.22  28 3.22  13 3.22
   5  0.800  0.200  0.800-   6 2.79  15 2.79  18 2.79  30 2.79   3 2.79   7 2.79  19 2.79   1 2.79
                            27 3.22  14 3.22  11 3.22  12 3.22
   6  0.933  0.400  0.933-   5 2.79  11 2.79  14 2.79  21 2.79  26 2.79  10 2.79  13 2.79  25 2.79
                            30 3.22  12 3.22  30 3.22  16 3.22
   7  0.500  0.000  0.000-  14 2.79  24 2.79   4 2.79   5 2.79  12 2.79  13 2.79  21 2.79  28 2.79
                            15 3.22   8 3.22  26 3.22  30 3.22   1 3.22   1 3.22
   8  0.333  0.000  0.333-   4 2.79  23 2.79  29 2.79  14 2.79  28 2.79  27 2.79  13 2.79   9 2.79
                             7 3.22  17 3.22  20 3.22   2 3.22   2 3.22  19 3.22
   9  0.467  0.200  0.467-  18 2.79  15 2.79  16 2.79   3 2.79  19 2.79   2 2.79  20 2.79   8 2.79
                            21 3.22  17 3.22  27 3.22  27 3.22  23 3.22  14 3.22
  10  0.233  0.600  0.733-   3 2.79  23 2.79  12 2.79  30 2.79   6 2.79  18 2.79  29 2.79  24 2.79
                            17 3.22  21 3.22  19 3.22  11 3.22  11 3.22  25 3.22
  11  0.733  0.600  0.733-  18 2.79   6 2.79  29 2.79  24 2.79  30 2.79   3 2.79  23 2.79  12 2.79
                            22 3.22   5 3.22  15 3.22  10 3.22  10 3.22  26 3.22
  12  0.867  0.800  0.867-   1 2.79  25 2.79  26 2.79  10 2.79  19 2.79   7 2.79  15 2.79  11 2.79
                            28 3.22   6 3.22  24 3.22  24 3.22   5 3.22  29 3.22
  13  0.133  0.200  0.133-   1 2.79  16 2.79  30 2.79   2 2.79   7 2.79   6 2.79   8 2.79  20 2.79
                            21 3.22  25 3.22  14 3.22  14 3.22   4 3.22  27 3.22
  14  0.633  0.200  0.133-   7 2.79   6 2.79  20 2.79  30 2.79   8 2.79   1 2.79   2 2.79  16 2.79
                             5 3.22  26 3.22  13 3.22  13 3.22  28 3.22   9 3.22
  15  0.667  0.000  0.667-   5 2.79   9 2.79  27 2.79  24 2.79  21 2.79  29 2.79  12 2.79  23 2.79
                             7 3.22  18 3.22  11 3.22  19 3.22  19 3.22   2 3.22
  16  0.767  0.400  0.267-  22 2.79   9 2.79  13 2.79  25 2.79  26 2.79  17 2.79  27 2.79  14 2.79
                            18 3.22  28 3.22   2 3.22  20 3.22  20 3.22   6 3.22
  17  0.400  0.600  0.400-  23 2.79  20 2.79   4 2.79  28 2.79  29 2.79   3 2.79  16 2.79  18 2.79
                            10 3.22  26 3.22   8 3.22   9 3.22  22 3.22  22 3.22
  18  0.600  0.400  0.600-   9 2.79  11 2.79   5 2.79  21 2.79  27 2.79  22 2.79  10 2.79  17 2.79
                            30 3.22  16 3.22  15 3.22  23 3.22   3 3.22   3 3.22
  19  0.167  0.000  0.667-  21 2.79  27 2.79   9 2.79  12 2.79   5 2.79  23 2.79  24 2.79  29 2.79
                            10 3.22  15 3.22  15 3.22   8 3.22
  20  0.267  0.400  0.267-  17 2.79  27 2.79  14 2.79  22 2.79   9 2.79  26 2.79  25 2.79  13 2.79
                             8 3.22  16 3.22  16 3.22  30 3.22
  21  0.300  0.200  0.800-  30 2.79  19 2.79   3 2.79   6 2.79  18 2.79   1 2.79  15 2.79   7 2.79
                             9 3.22  13 3.22  10 3.22
  22  0.900  0.600  0.400-  29 2.79  16 2.79  28 2.79   4 2.79  23 2.79  18 2.79  20 2.79   3 2.79
                            11 3.22  25 3.22  27 3.22  17 3.22  17 3.22
  23  0.533  0.800  0.533-  17 2.79   8 2.79  10 2.79  22 2.79   2 2.79  19 2.79  11 2.79  15 2.79
                            28 3.22  18 3.22  29 3.22  29 3.22   9 3.22
  24  0.367  0.800  0.867-   7 2.79  26 2.79  25 2.79  11 2.79  15 2.79   1 2.79  19 2.79  10 2.79
                            30 3.22  12 3.22  12 3.22
  25  0.067  0.600  0.067-   4 2.79  12 2.79  24 2.79  28 2.79  16 2.79  20 2.79  30 2.79   6 2.79
                            22 3.22  26 3.22   1 3.22  13 3.22  26 3.22  10 3.22
  26  0.567  0.600  0.067-  28 2.79  12 2.79  24 2.79   6 2.79   4 2.79  16 2.79  20 2.79  30 2.79
                            17 3.22  25 3.22   7 3.22  14 3.22  25 3.22  11 3.22
  27  0.967  0.200  0.467-   3 2.79  19 2.79  20 2.79  18 2.79  15 2.79   8 2.79  16 2.79   2 2.79
                             5 3.22  22 3.22   9 3.22   9 3.22  29 3.22  13 3.22
  28  0.700  0.800  0.200-   2 2.79  26 2.79  22 2.79  25 2.79  17 2.79   1 2.79   8 2.79   7 2.79
                            23 3.22  12 3.22  16 3.22   4 3.22   4 3.22  14 3.22
  29  0.033  0.800  0.533-  22 2.79   2 2.79  11 2.79  17 2.79   8 2.79  15 2.79  10 2.79  19 2.79
                             4 3.22   3 3.22  23 3.22  23 3.22  27 3.22  12 3.22
  30  0.433  0.400  0.933-  21 2.79   5 2.79  11 2.79  10 2.79  14 2.79  13 2.79  25 2.79  26 2.79
                            18 3.22   6 3.22   7 3.22  24 3.22   6 3.22  20 3.22

IMPORTANT INFORMATION: All symmetrisations will be switched off!
NOSYMM: (Re-)initialisation of all symmetry stuff for point group C_1.

 KPOINTS: k-points

Automatic generation of k-mesh.
Space group operators:
 irot       det(A)        alpha          n_x          n_y          n_z        tau_x        tau_y        tau_z
    1     1.000000     0.000001     1.000000     0.000000     0.000000     0.000000     0.000000     0.000000

 Subroutine IBZKPT returns following result:

 Found     63 irreducible k-points:

 Following reciprocal coordinates:
            Coordinates               Weight
  0.000000  0.000000  0.000000      1.000000
  0.200000  0.000000  0.000000      2.000000
  0.400000  0.000000  0.000000      2.000000
  0.000000  0.200000  0.000000      2.000000
  0.200000  0.200000  0.000000      2.000000
  0.400000  0.200000  0.000000      2.000000
 -0.400000  0.200000 -0.000000      2.000000
 -0.200000  0.200000 -0.000000      2.000000
  0.000000  0.400000  0.000000      2.000000
  0.200000  0.400000  0.000000      2.000000
  0.400000  0.400000  0.000000      2.000000
 -0.400000  0.400000 -0.000000      2.000000
 -0.200000  0.400000 -0.000000      2.000000
  0.000000  0.000000  0.200000      2.000000
  0.200000  0.000000  0.200000      2.000000
  0.400000  0.000000  0.200000      2.000000
 -0.400000 -0.000000  0.200000      2.000000
 -0.200000 -0.000000  0.200000      2.000000
  0.000000  0.200000  0.200000      2.000000
  0.200000  0.200000  0.200000      2.000000
  0.400000  0.200000  0.200000      2.000000
 -0.400000  0.200000  0.200000      2.000000
 -0.200000  0.200000  0.200000      2.000000
  0.000000  0.400000  0.200000      2.000000
  0.200000  0.400000  0.200000      2.000000
  0.400000  0.400000  0.200000      2.000000
 -0.400000  0.400000  0.200000      2.000000
 -0.200000  0.400000  0.200000      2.000000
  0.000000 -0.400000  0.200000      2.000000
  0.200000 -0.400000  0.200000      2.000000
  0.400000 -0.400000  0.200000      2.000000
 -0.400000 -0.400000  0.200000      2.000000
 -0.200000 -0.400000  0.200000      2.000000
  0.000000 -0.200000  0.200000      2.000000
  0.200000 -0.200000  0.200000      2.000000
  0.400000 -0.200000  0.200000      2.000000
 -0.400000 -0.200000  0.200000      2.000000
 -0.200000 -0.200000  0.200000      2.000000
[...]

[...]

 eigenvalue-minimisations  : 24032
 total energy-change (2. order) :-0.1148557E-02  (-0.7383275E-02)
 number of electron     204.0000014 magnetization
 augmentation part       27.2269654 magnetization

[...]

 Broyden mixing:
  rms(total) = 0.60400E-02    rms(broyden)= 0.60398E-02
  rms(prec ) = 0.99887E-02
  weight for this iteration     100.00

 eigenvalues of (default mixing * dielectric matrix)
  average eigenvalue GAMMA=   0.8152
  2.6119  1.8612  1.5383  0.9002  0.9002  0.6255  0.6255  0.5232  0.3990  0.3990
  0.3105  0.2101  0.2673  0.2412

[...]

--------------------------------------- Iteration      1(  20)  ---------------------------------------

 eigenvalue-minimisations  : 15960
 total energy-change (2. order) : 0.2394251E-04  (-0.4498729E-04)
 number of electron     204.0000014 magnetization
 augmentation part       27.1610806 magnetization

 Free energy of the ion-electron system (eV)
  alpha Z        PSCENC =      1343.16923251
  Ewald energy   TEWEN  =    -11979.72277562
  -Hartree energ DENC   =     -2867.88371816
  -exchange      EXHF   =         0.00000000
  -V(xc)+E(xc)   XCENC  =      -898.80956468
  PAW double counting   =     21010.43557467   -19450.62403299
  entropy T*S    EENTRO =        -0.00986744
  eigenvalues    EBANDS =      -713.36140179
  atomic energy  EATOM  =     13210.85262565
  Solvation  Ediel_sol  =         0.00000000
  free energy    TOTEN  =      -345.95392787 eV

  energy without entropy =     -345.94406043  energy(sigma->0) =     -345.95063872

 average (electrostatic) potential at core
  the test charge radii are     1.0703  1.2296  1.2538  1.2598  1.1823
  (the norm of the test charge is              1.0000)
       1 -80.8746       2 -80.9606       3 -81.0259       4 -81.0244       5 -80.8969
       6 -81.0057       7 -35.9167       8 -36.0180       9 -35.8794      10 -35.9738
      11 -35.9767      12 -36.0993      13 -33.7195      14 -33.7375      15 -33.7873
      16 -33.6410      17 -33.6570      18 -33.7768      19 -22.3437      20 -22.2231
      21 -22.1955      22 -22.3162      23 -22.3693      24 -22.2621      25 -38.0806
      26 -38.1032      27 -37.9392      28 -38.1113      29 -38.0664      30 -38.0959

 E-fermi :   6.6178     XC(G=0): -12.6172     alpha+bet :-14.8093

 k-point     1 :       0.0000    0.0000    0.0000
  band No.  band energies     occupation
      1     -47.4296      2.00000
      2     -47.4202      2.00000
      3     -47.3876      2.00000
      4     -47.3314      2.00000
      5     -47.2933      2.00000
      6     -47.2314      2.00000
      7     -23.9428      2.00000
      8     -23.8779      2.00000
      9     -23.8179      2.00000
     10     -23.7155      2.00000
     11     -23.6116      2.00000
     12     -23.5953      2.00000
     13     -23.5819      2.00000
     14     -23.5533      2.00000
     15     -23.5341      2.00000
     16     -23.5063      2.00000
     17     -23.4977      2.00000
     18     -23.4841      2.00000
     19     -23.4109      2.00000
     20     -23.3849      2.00000
     21     -23.2899      2.00000
     22     -23.2575      2.00000
     23     -23.1928      2.00000
     24     -23.0592      2.00000
     25      -0.6362      2.00000
     26       1.2372      2.00000
     27       1.7381      2.00000
     28       1.8961      2.00000
     29       2.1117      2.00000
     30       2.2358      2.00000
     31       2.2941      2.00000
     32       2.3896      2.00000
     33       2.5055      2.00000
     34       2.7071      2.00000
     35       2.7489      2.00000
     36       2.8728      2.00000
     37       2.8887      2.00000
     38       2.9419      2.00000
     39       3.0174      2.00000
     40       3.1234      2.00000
     41       3.1696      2.00000
     42       3.1956      2.00000
     43       3.2331      2.00000
     44       3.2679      2.00000
     45       3.3104      2.00000
     46       3.3254      2.00000
     47       3.4158      2.00000
     48       3.4823      2.00000
     49       3.5111      2.00000
     50       3.6146      2.00000
     51       3.6364      2.00000
     52       3.7178      2.00000
     53       3.7915      2.00000
     54       3.9831      2.00000
     55       4.1724      2.00000
     56       4.2715      2.00000
     57       4.4193      2.00000
     58       4.4380      2.00000
     59       4.5764      2.00000
     60       4.6287      2.00000
[...]
    114       7.5977     -0.00000
    115       7.6685     -0.00000
    116       7.7791     -0.00000
    117       7.9410     -0.00000
    118       8.0611     -0.00000
    119       8.1093     -0.00000
    120       8.2368     -0.00000
    121       8.2498     -0.00000
    122       8.2579     -0.00000
    123       8.2746     -0.00000
    124       8.3293     -0.00000
    125       8.3572     -0.00000
    126       8.4460     -0.00000
    127       8.4529     -0.00000
    128       8.4639     -0.00000

[...]

 k-point    63 :      -0.2000   -0.2000    0.4000
  band No.  band energies     occupation
      1     -47.4290      2.00000
      2     -47.4207      2.00000
      3     -47.3875      2.00000
      4     -47.3314      2.00000
      5     -47.2933      2.00000
      6     -47.2314      2.00000
      7     -23.9434      2.00000
      8     -23.8773      2.00000
      9     -23.8188      2.00000
     10     -23.7175      2.00000
     11     -23.6114      2.00000
     12     -23.5959      2.00000
     13     -23.5835      2.00000
     14     -23.5536      2.00000
     15     -23.5340      2.00000
     16     -23.5039      2.00000
     17     -23.4997      2.00000
     18     -23.4831      2.00000
     19     -23.4110      2.00000
     20     -23.3846      2.00000
     21     -23.2880      2.00000
     22     -23.2580      2.00000
     23     -23.1927      2.00000
     24     -23.0598      2.00000
     25       0.0036      2.00000
     26       0.4326      2.00000
     27       1.6547      2.00000
     28       2.0731      2.00000
     29       2.1919      2.00000
     30       2.3589      2.00000
     31       2.4604      2.00000
     32       2.5632      2.00000
     33       2.5740      2.00000
     34       2.6789      2.00000
     35       2.8770      2.00000
     36       2.9191      2.00000
     37       2.9779      2.00000
     38       3.0042      2.00000
     39       3.1374      2.00000
     40       3.1528      2.00000
     41       3.2213      2.00000
     42       3.2562      2.00000
     43       3.3391      2.00000
     44       3.3587      2.00000
     45       3.4141      2.00000
     46       3.4482      2.00000
     47       3.5597      2.00000
     48       3.6261      2.00000
     49       3.7076      2.00000
     50       3.7909      2.00000
     51       3.8397      2.00000
     52       3.9426      2.00000
     53       3.9687      2.00000
     54       4.0764      2.00000
     55       4.1035      2.00000
     56       4.1618      2.00000
     57       4.2174      2.00000
     58       4.2548      2.00000
     59       4.5503      2.00000
     60       4.5965      2.00000
[...]
    114       7.8489     -0.00000
    115       7.9177     -0.00000
    116       7.9918     -0.00000
    117       8.0922     -0.00000
    118       8.1019     -0.00000
    119       8.1944     -0.00000
    120       8.2560     -0.00000
    121       8.3397     -0.00000
    122       8.4174     -0.00000
    123       8.5503     -0.00000
    124       8.6055     -0.00000
    125       8.6405     -0.00000
    126       8.6848     -0.00000
    127       8.7661     -0.00000
    128       8.8174     -0.00000

 soft charge-density along one line, spin component           1
         0         1         2         3         4         5         6         7         8         9
 total charge-density along one line

------------------------ aborting loop because EDIFF is reached ----------------------------------------

  FORCE on cell =-STRESS in cart. coord.  units (eV):
  Direction    XX          YY          ZZ          XY          YZ          ZX
  Alpha Z  1343.16923  1343.16923  1343.16923
  Ewald   -3979.31876 -3956.38789 -4044.04697   -72.24090   146.89737   -21.62048
  Hartree   971.20252   980.09134   917.18748   -80.28891   115.25162   -20.08495
  E(xc)    -915.34680  -915.26866  -915.34800     0.39652     0.06449    -0.01121
  Local    -301.62626  -334.07534  -182.95765   154.58929  -263.62272    41.32925
  n-local  -346.68479  -347.74300  -344.49872     3.13869    -1.35667    -0.62920
  augment   246.69147   246.81902   246.32537    -0.65100     0.30883     0.18389
  Kinetic  2961.39889  2962.69719  2959.71278    -3.92558     2.24390     0.44659
  Fock        0.00000     0.00000     0.00000     0.00000     0.00000     0.00000
  Total     -20.51449   -20.69811   -20.45647     1.01811    -0.21318    -0.38612
  in kB     -65.63153   -66.21897   -65.44591     3.25722    -0.68202    -1.23530

 VOLUME and BASIS-vectors are now :
  energy-cutoff  :      400.00
  volume of cell :      500.79
      direct lattice vectors                 reciprocal lattice vectors
     0.000000000  0.000000000  6.440000000    -0.020703934 -0.051759834  0.155279503
     8.050000000  1.610000000  1.610000000     0.124223602  0.000000000  0.000000000
     0.000000000  9.660000000  3.220000000    -0.020703934  0.103519669  0.000000000

  length of vectors
     6.440000000  8.365805401 10.182534066     0.164983203  0.124223602  0.105569762

 FORCES acting on ions
    electron-ion (+dipol)            ewald-force                    non-local-force                 convergence-correction
   0.911E+02 0.111E+03 -.429E+02   -.916E+02 -.112E+03 0.421E+02   -.159E+00 -.327E+00 0.376E+00   0.562E-02 -.736E-02 0.138E-01
   -.411E+02 -.234E+03 0.896E+02   0.409E+02 0.235E+03 -.895E+02   -.583E-01 -.685E-01 -.157E+00   0.722E-02 0.559E-02 -.343E-01
   -.827E+02 0.218E+03 -.825E+02   0.823E+02 -.219E+03 0.824E+02   0.264E+00 0.247E+00 0.166E-01   -.235E-01 -.787E-01 -.141E-01
   0.212E+03 -.496E+02 -.128E+03   -.212E+03 0.483E+02 0.129E+03   0.969E-01 0.522E+00 -.283E+00   -.958E-01 0.279E-01 -.132E-01
   0.740E+02 0.162E+03 0.203E+03   -.740E+02 -.162E+03 -.204E+03   -.111E+00 -.319E+00 0.411E+00   0.410E-01 -.478E-02 0.210E-01
   -.159E+03 -.133E+03 -.821E+02   0.160E+03 0.133E+03 0.820E+02   -.941E-01 -.427E+00 0.577E-01   0.102E-01 0.146E-01 0.887E-02
   0.113E+02 0.268E+02 0.197E+02   -.116E+02 -.270E+02 -.194E+02   -.277E-01 0.145E+00 0.191E+00   0.702E-02 0.120E-01 -.820E-02
   -.243E+02 -.769E+02 -.414E+02   0.244E+02 0.774E+02 0.413E+02   0.148E-01 0.732E-01 0.306E-01   0.271E-01 0.146E-01 0.161E-01
   -.168E+01 -.360E+01 0.252E+01   0.153E+01 0.367E+01 -.254E+01   -.176E+00 -.110E-01 -.773E-01   0.138E-01 -.988E-02 -.374E-01
   -.948E+02 0.351E+02 -.876E+02   0.949E+02 -.352E+02 0.876E+02   0.187E-01 0.235E+00 -.821E-01   -.609E-02 0.780E-02 0.129E-01
   -.124E+03 0.298E+02 0.876E+02   0.124E+03 -.300E+02 -.876E+02   0.199E+00 0.214E+00 0.102E+00   -.157E-01 -.669E-02 -.125E-01
   0.226E+02 0.726E+02 0.278E+02   -.230E+02 -.724E+02 -.280E+02   -.224E+00 0.502E-01 -.508E-01   -.159E-01 0.518E-02 0.126E-01
   -.713E+02 -.596E+02 -.803E+02   0.710E+02 0.592E+02 0.807E+02   0.336E-01 0.317E-01 0.409E+00   0.244E-01 0.132E-01 0.202E-01
   -.509E+02 -.891E+02 0.803E+02   0.507E+02 0.886E+02 -.807E+02   -.252E+00 0.163E+00 -.398E+00   0.219E-01 0.220E-01 -.202E-01
   0.413E+02 0.210E+02 0.512E+02   -.410E+02 -.216E+02 -.506E+02   -.838E-01 -.391E-02 -.533E-01   0.141E-01 -.503E-02 -.188E-01
   -.309E+02 -.548E+02 0.150E+00   0.308E+02 0.547E+02 -.171E+00   0.241E+00 0.233E+00 0.495E-02   0.123E-01 0.146E-01 0.916E-02
   0.191E+02 -.108E+02 -.580E+02   -.187E+02 0.108E+02 0.580E+02   0.353E+00 0.178E-01 -.111E+00   -.158E-01 -.163E-01 -.327E-02
   -.448E+02 0.549E+02 0.317E+02   0.449E+02 -.550E+02 -.317E+02   0.247E-01 0.280E+00 0.148E-02   0.857E-02 -.198E-01 0.556E-02
   0.546E+02 0.540E+02 -.408E+02   -.546E+02 -.542E+02 0.405E+02   -.953E-01 -.695E-01 -.160E+00   0.132E-01 -.101E-01 0.163E-01
   0.114E+02 -.296E+01 -.115E+00   -.112E+02 0.299E+01 0.137E+00   -.334E+00 -.125E+00 0.273E-01   0.453E-02 0.113E-01 -.778E-02
   0.265E+02 0.539E+02 -.624E+02   -.268E+02 -.533E+02 0.629E+02   0.131E+00 0.964E-01 -.397E-01   0.552E-02 -.942E-02 -.772E-02
   0.313E+02 -.781E+01 0.464E+02   -.308E+02 0.778E+01 -.464E+02   -.682E-01 0.443E-01 0.147E+00   -.134E-01 -.129E-01 0.189E-02
   0.188E+02 -.330E+02 0.208E+02   -.192E+02 0.334E+02 -.210E+02   -.595E-01 0.371E-01 0.351E-01   -.401E-02 -.121E-01 -.408E-02
   0.140E+02 0.731E+02 -.185E+02   -.144E+02 -.729E+02 0.186E+02   -.157E+00 -.833E-01 0.167E-01   -.778E-02 -.359E-03 -.889E-02
   0.487E+02 -.168E+02 -.180E+02   -.486E+02 0.171E+02 0.179E+02   0.591E-01 -.319E+00 -.694E-01   -.227E-01 0.274E-01 0.173E-01
   0.151E+02 -.234E+02 0.180E+02   -.153E+02 0.235E+02 -.179E+02   0.365E+00 -.386E+00 0.894E-01   -.202E-01 0.136E-01 -.171E-01
   -.168E+02 0.263E+02 -.262E+01   0.171E+02 -.264E+02 0.254E+01   -.356E+00 -.130E+00 0.190E+00   0.355E-01 -.131E-01 0.380E-01
   0.986E+02 -.516E+02 0.593E+02   -.986E+02 0.515E+02 -.595E+02   0.124E+00 -.281E+00 -.208E+00   -.325E-01 0.226E-01 0.815E-02
   0.173E+01 -.579E+02 -.315E+02   -.198E+01 0.579E+02 0.315E+02   0.208E+00 0.278E+00 0.202E+00   -.130E-01 -.220E-01 0.605E-02
   -.502E+02 -.349E+02 0.379E+02   0.509E+02 0.352E+02 -.378E+02   0.371E+00 -.811E-01 0.109E-01   0.211E-02 0.191E-01 -.490E-02
   -.218E+00 -.152E-01 -.615E+00   0.192E-12 0.284E-13 0.107E-12   0.248E+00 0.371E-01 0.631E+00   -.323E-01 0.298E-02 -.442E-02

 POSITION                                       TOTAL-FORCE (eV/Angst)
      0.00000      0.00000      0.00000        -0.673337     -0.374135     -0.342614
      0.00000      3.22000      6.44000        -0.314298      0.642858     -0.113428
      3.22000      6.44000      3.22000        -0.136649     -0.198438     -0.074875
      6.44000      3.22000      3.22000        -0.184542     -0.744873      0.312165
      1.61000      8.05000      8.05000        -0.091846      0.431100     -0.458978
      3.22000      9.66000      9.66000         1.057130     -0.132619     -0.040208
      0.00000      0.00000      3.22000        -0.298413     -0.007766      0.402394
      0.00000      3.22000      3.22000         0.159662      0.609507     -0.043690
      1.61000      4.83000      4.83000        -0.311487      0.045609     -0.135577
      4.83000      8.05000      4.83000         0.117369      0.106791     -0.113116
      4.83000      8.05000      8.05000         0.375633      0.010051      0.125726
      6.44000      9.66000      9.66000        -0.594179      0.271020     -0.193113
      1.61000      1.61000      1.61000        -0.232127     -0.438052      0.853813
      1.61000      1.61000      4.83000        -0.427598     -0.292862     -0.848869
      0.00000      6.44000      6.44000         0.208274     -0.572391      0.519296
      3.22000      3.22000      6.44000         0.120390      0.180154     -0.007198
      4.83000      4.83000      4.83000         0.757328      0.004084     -0.046985
      3.22000      6.44000      6.44000         0.089933      0.162792     -0.005765
      0.00000      6.44000      3.22000        -0.041216     -0.337544     -0.468092
      3.22000      3.22000      3.22000        -0.149013     -0.085240      0.041488
      1.61000      8.05000      4.83000        -0.157521      0.642216      0.413649
      4.83000      4.83000      8.05000         0.415808     -0.004531      0.146980
      6.44000      6.44000      6.44000        -0.486963      0.428686     -0.179144
      6.44000      9.66000      6.44000        -0.560698      0.054434      0.197918
      4.83000      1.61000      1.61000         0.116248     -0.056738     -0.121080
      4.83000      1.61000      4.83000         0.171403     -0.210170      0.160462
      1.61000      4.83000      8.05000        -0.062440     -0.214431      0.149564
      6.44000      3.22000      6.44000         0.027014     -0.340901     -0.443028
      6.44000      6.44000      3.22000        -0.060475      0.212863      0.266717
      3.22000      9.66000      6.44000         1.166610      0.208527      0.045590
    total drift:                               -0.002265      0.024862      0.011079

  FREE ENERGIE OF THE ION-ELECTRON SYSTEM (eV)
  free  energy   TOTEN  =      -345.95392787 eV

  energy  without entropy=     -345.94406043  energy(sigma->0) =     -345.95063872

 stress matrix after NEB project (eV)
    -20.51449      1.01811     -0.38612
      1.01811    -20.69811     -0.21318
     -0.38612     -0.21318    -20.45647
  FORCES: max atom, RMS     1.185976    0.638662
  FORCE total and by dimension    3.498097    1.166610
  Stress total and by dimension   35.639666   20.698112
 writing wavefunctions