 vasp.5.4.4.18Apr17-6-g9f103f2a35 (build Aug 09 2018 16:20:53) complex

 executed on             LinuxIFC date 2020.04.28  21:16:22

 INCAR:
 POTCAR:    PAW_PBE Nb_sv 25May2007
 POTCAR:    PAW_PBE Mo 08Apr2002
 POTCAR:    PAW_PBE Ta 17Jan2003
 POTCAR:    PAW_PBE Ti 08Apr2002
 POTCAR:    PAW_PBE V 08Apr2002
 POTCAR:    PAW_PBE Nb_sv 25May2007
   VRHFIN =Nb: 4p5s4d

   TITEL  = PAW_PBE Nb_sv 25May2007
   POMASS =   92.910; ZVAL   =   13.000    mass and valenz
   ENMAX  =  293.235; ENMIN  =  219.927 eV

 POTCAR:    PAW_PBE Mo 08Apr2002
   VRHFIN =Mo: 4p5s4d

   TITEL  = PAW_PBE Mo 08Apr2002
   POMASS =   95.940; ZVAL   =    6.000    mass and valenz
   ENMAX  =  224.584; ENMIN  =  168.438 eV

 POTCAR:    PAW_PBE Ta 17Jan2003
   VRHFIN =Ta:  6s5d

   TITEL  = PAW_PBE Ta 17Jan2003
   POMASS =  180.948; ZVAL   =    5.000    mass and valenz
   ENMAX  =  223.667; ENMIN  =  167.750 eV

 POTCAR:    PAW_PBE Ti 08Apr2002
   VRHFIN =Ti: d3 s1

[...]

 POTCAR:    PAW_PBE V 08Apr2002
   VRHFIN =V: p6 d4 s1

   TITEL  = PAW_PBE V 08Apr2002
   POMASS =   50.941; ZVAL   =    5.000    mass and valenz
   ENMAX  =  192.543; ENMIN  =  144.408 eV

 Optimization of the real space projectors (new method)

 maximal supplied QI-value         = 15.68
 optimisation between [QCUT,QGAM] = [ 12.55, 25.10] = [ 44.09,176.36] Ry
 Optimized for a Real-space Cutoff    1.56 Angstroem

   l    n(q)    QCUT    max X(q) W(low)/X(q) W(high)/X(q)  e(spline)
   0     12    12.548    10.201    0.21E-04    0.36E-05    0.83E-07
   0     12    12.548     8.174    0.31E-04    0.62E-05    0.15E-06
   1     11    12.548     3.488    0.79E-05    0.23E-04    0.21E-06
   1     11    12.548     4.917    0.56E-04    0.13E-03    0.11E-05
   2     11    12.548   153.744    0.25E-03    0.10E-03    0.15E-05
   2     11    12.548   126.342    0.25E-03    0.10E-03    0.15E-05
 Optimization of the real space projectors (new method)

[...]

   l    n(q)    QCUT    max X(q) W(low)/X(q) W(high)/X(q)  e(spline)
   2     11    12.478    49.363    0.45E-03    0.34E-03    0.89E-06
   2     11    12.478    47.669    0.44E-03    0.33E-03    0.87E-06
   0     12    12.478    26.374    0.17E-03    0.37E-04    0.21E-05
   0     12    12.478    11.549    0.13E-03    0.31E-04    0.17E-05
   1     11    12.478     9.492    0.91E-05    0.64E-04    0.34E-06
 Optimization of the real space projectors (new method)

 maximal supplied QI-value         = 13.98
 optimisation between [QCUT,QGAM] = [ 12.45, 25.03] = [ 43.38,175.46] Ry
 Optimized for a Real-space Cutoff    1.56 Angstroem

   l    n(q)    QCUT    max X(q) W(low)/X(q) W(high)/X(q)  e(spline)
   2     11    12.446    96.114    0.19E-03    0.47E-04    0.85E-06
   2     11    12.446    88.986    0.19E-03    0.46E-04    0.86E-06
   0     12    12.446    20.919    0.37E-04    0.64E-04    0.43E-06
   0     12    12.446     9.593    0.25E-04    0.48E-04    0.33E-06
   1     11    12.446    11.615    0.75E-04    0.30E-04    0.59E-06
   1     11    12.446     7.031    0.53E-04    0.23E-04    0.40E-06

  PAW_PBE Nb_sv 25May2007               :
  PAW_PBE Mo 08Apr2002                  :
  PAW_PBE Ta 17Jan2003                  :
  PAW_PBE Ti 08Apr2002                  :
  PAW_PBE V 08Apr2002                   :

 POSCAR: Nb - Mo - Ta - Ti - V SQS-30 BCC
  positions in direct lattice
 exchange correlation table for  LEXCH =       14
   RHO(1)=    0.500       N(1)  =     2000
   RHO(2)=  100.500       N(2)  =     4000

 VTST: version 3.2, (02/03/18)

 CHAIN: initializing optimizer

 OPT: Using VASP Conjugate-Gradient optimizer
 CHAIN: Read ICHAIN            0

 POSCAR: Nb - Mo - Ta - Ti - V SQS-30 BCC
  positions in direct lattice

 ion  position               nearest neighbor table
   1  0.967  0.933  0.400-  18 2.75   7 2.75  24 2.75  20 2.75  20 2.75  19 2.75   6 2.75   2 2.75
                            16 3.18   8 3.18  15 3.18  11 3.18  12 3.18
   2  0.633  0.267  0.400-  18 2.75  26 2.75   9 2.75  12 2.75  12 2.75  28 2.75  15 2.75   1 2.75
                             8 3.18
   3  0.500  0.000  0.000-  13 2.75  21 2.75  17 2.75  15 2.75   4 2.75   4 2.75  27 2.75  16 2.75
                            10 3.18  14 3.18   7 3.18
   4  0.000  0.000  0.000-  10 2.75  29 2.75  24 2.75  14 2.75   3 2.75   3 2.75   7 2.75   5 2.75
                            15 3.18  13 3.18  17 3.18  16 3.18
   5  0.100  0.200  0.800-  25 2.75  17 2.75   6 2.75  21 2.75  23 2.75  27 2.75  27 2.75   4 2.75
                            10 3.18  14 3.18
   6  0.033  0.067  0.600-  26 2.75   5 2.75  14 2.75  28 2.75  28 2.75  12 2.75   1 2.75  11 2.75
                            17 3.18
   7  0.900  0.800  0.200-  30 2.75  15 2.75   1 2.75  13 2.75   8 2.75  16 2.75  16 2.75   4 2.75
                            20 3.18   9 3.18  24 3.18  29 3.18  18 3.18   3 3.18
   8  0.800  0.600  0.400-  20 2.75  12 2.75   9 2.75  19 2.75   7 2.75  18 2.75  18 2.75  26 2.75
                            30 3.18   1 3.18  11 3.18   2 3.18  16 3.18  23 3.18
   9  0.733  0.467  0.200-  16 2.75   8 2.75   2 2.75  30 2.75  30 2.75  13 2.75  10 2.75  24 2.75
                             7 3.18  18 3.18  12 3.18  29 3.18  15 3.18  21 3.18
  10  0.667  0.333  0.000-   4 2.75  27 2.75  21 2.75  21 2.75  25 2.75  15 2.75   9 2.75  29 2.75
                             3 3.18   5 3.18  22 3.18  24 3.18  13 3.18  30 3.18
  11  0.367  0.733  0.600-  26 2.75  18 2.75  22 2.75  19 2.75  19 2.75  20 2.75  17 2.75   6 2.75
                             8 3.18  23 3.18  25 3.18   1 3.18  28 3.18  14 3.18
  12  0.133  0.267  0.400-   8 2.75  23 2.75  30 2.75   2 2.75   2 2.75   6 2.75  24 2.75  20 2.75
                            18 3.18  26 3.18   9 3.18  28 3.18  15 3.18   1 3.18
  13  0.833  0.667  0.000-   3 2.75   7 2.75  29 2.75  29 2.75   9 2.75  14 2.75  25 2.75  21 2.75
                             4 3.18  16 3.18  30 3.18  17 3.18  10 3.18  22 3.18
  14  0.933  0.867  0.800-  27 2.75   4 2.75   6 2.75  17 2.75  13 2.75  17 2.75  19 2.75  22 2.75
                             3 3.18   5 3.18  28 3.18  29 3.18  11 3.18  25 3.18
  15  0.567  0.133  0.200-   7 2.75   3 2.75  24 2.75  20 2.75  10 2.75  24 2.75   2 2.75  30 2.75
                             4 3.18  16 3.18   1 3.18  21 3.18  12 3.18   9 3.18
  16  0.400  0.800  0.200-   9 2.75  24 2.75  20 2.75  29 2.75  18 2.75   7 2.75   7 2.75   3 2.75
                             1 3.18  30 3.18  13 3.18  15 3.18   8 3.18   4 3.18
  17  0.433  0.867  0.800-   5 2.75   3 2.75  28 2.75  14 2.75  29 2.75  14 2.75  11 2.75  25 2.75
                            27 3.18   4 3.18   6 3.18  13 3.18  19 3.18  22 3.18
  18  0.300  0.600  0.400-   1 2.75   2 2.75  30 2.75  11 2.75  16 2.75   8 2.75   8 2.75  23 2.75
                            20 3.18   9 3.18  12 3.18  19 3.18   7 3.18  26 3.18
  19  0.867  0.733  0.600-  23 2.75   8 2.75  25 2.75  11 2.75  11 2.75   1 2.75  14 2.75  28 2.75
                            18 3.18  17 3.18
  20  0.467  0.933  0.400-   8 2.75  16 2.75  15 2.75   1 2.75   1 2.75  11 2.75  28 2.75  12 2.75
                             7 3.18  18 3.18
  21  0.167  0.333  0.000-   3 2.75   5 2.75  10 2.75  10 2.75  22 2.75  24 2.75  30 2.75  13 2.75
                            15 3.18   9 3.18
  22  0.267  0.533  0.800-  27 2.75  23 2.75  11 2.75  25 2.75  25 2.75  21 2.75  29 2.75  14 2.75
                            10 3.18  13 3.18  17 3.18
  23  0.200  0.400  0.600-  28 2.75  19 2.75  22 2.75  12 2.75   5 2.75  26 2.75  26 2.75  18 2.75
                            11 3.18   8 3.18
  24  0.067  0.133  0.200-  16 2.75   4 2.75  15 2.75   1 2.75  15 2.75  21 2.75  12 2.75   9 2.75
                             7 3.18  10 3.18
  25  0.767  0.533  0.800-   5 2.75  26 2.75  19 2.75  22 2.75  22 2.75  10 2.75  13 2.75  17 2.75
                            11 3.18  14 3.18
  26  0.700  0.400  0.600-   6 2.75  11 2.75  25 2.75   2 2.75  27 2.75  23 2.75  23 2.75   8 2.75
                            12 3.18  18 3.18
  27  0.600  0.200  0.800-  22 2.75  14 2.75  28 2.75  10 2.75  26 2.75   5 2.75   5 2.75   3 2.75
                            17 3.18
  28  0.533  0.067  0.600-  23 2.75  27 2.75  17 2.75   6 2.75   6 2.75   2 2.75  20 2.75  19 2.75
                            14 3.18  12 3.18  11 3.18
  29  0.333  0.667  0.000-   4 2.75  16 2.75  13 2.75  13 2.75  30 2.75  17 2.75  22 2.75  10 2.75
                             7 3.18   9 3.18  14 3.18
  30  0.233  0.467  0.200-   7 2.75  18 2.75  12 2.75   9 2.75   9 2.75  29 2.75  21 2.75  15 2.75
                            16 3.18   8 3.18  13 3.18  10 3.18

  LATTYP: Found a triclinic cell.
 ALAT       =     5.5079215681
 B/A-ratio  =     2.8722813233
 C/A-ratio  =     2.0615528128
 COS(alpha) =     0.0140733444
 COS(beta)  =     0.0808452083
 COS(gamma) =     0.8703882798

  Lattice vectors:

 A1 = (   3.1800000000,   3.1800000000,   3.1800000000)
 A2 = (  11.1300000000,  11.1300000000,   1.5900000000)
 A3 = (  -7.9500000000,   7.9500000000,   1.5900000000)

Analysis of symmetry for initial positions (statically):
 Subroutine PRICEL returns:
 Original cell was already a primitive cell.

 Routine SETGRP: Setting up the symmetry group for a
 triclinic supercell.

 Subroutine GETGRP returns: Found  1 space group operations
 (whereof  1 operations were pure point group operations)
 out of a pool of  2 trial point group operations.

The static configuration has the point symmetry C_1 .

Analysis of symmetry for dynamics (positions and initial velocities):
 Subroutine PRICEL returns:
 Original cell was already a primitive cell.

 Routine SETGRP: Setting up the symmetry group for a
 triclinic supercell.

 Subroutine GETGRP returns: Found  1 space group operations
 (whereof  1 operations were pure point group operations)
 out of a pool of  2 trial point group operations.

The dynamic configuration has the point symmetry C_1 .

 Subroutine INISYM returns: Found  1 space group operations
 (whereof  1 operations are pure point group operations),
 and found     1 'primitive' translations

 KPOINTS: k-points

Automatic generation of k-mesh.
Space group operators:
 irot       det(A)        alpha          n_x          n_y          n_z        tau_x        tau_y        tau_z
    1     1.000000     0.000000     1.000000     0.000000     0.000000     0.000000     0.000000     0.000000

 Subroutine IBZKPT returns following result:

 Found     63 irreducible k-points:

 Following reciprocal coordinates:
            Coordinates               Weight
  0.000000  0.000000  0.000000      1.000000
  0.200000 -0.000000 -0.000000      2.000000
  0.400000 -0.000000 -0.000000      2.000000
  0.000000  0.200000  0.000000      2.000000
  0.200000  0.200000 -0.000000      2.000000
  0.400000  0.200000 -0.000000      2.000000
 -0.400000  0.200000  0.000000      2.000000
 -0.200000  0.200000  0.000000      2.000000
  0.000000  0.400000  0.000000      2.000000
  0.200000  0.400000 -0.000000      2.000000
  0.400000  0.400000 -0.000000      2.000000
 -0.400000  0.400000  0.000000      2.000000
 -0.200000  0.400000  0.000000      2.000000
  0.000000  0.000000  0.200000      2.000000
  0.200000 -0.000000  0.200000      2.000000
  0.400000 -0.000000  0.200000      2.000000
[...]
 augmentation part       34.0688216 magnetization

[...]

 Broyden mixing:
  rms(total) = 0.48063E-01    rms(broyden)= 0.48063E-01
  rms(prec ) = 0.50651E-01
  weight for this iteration     100.00

 eigenvalues of (default mixing * dielectric matrix)
  average eigenvalue GAMMA=   0.8431
  5.2615  2.7264  2.7264  2.5099  1.4107  1.4107  0.9727  0.9727  0.6730  0.6730
  0.6667  0.4974  0.4974  0.4294  0.4294  0.4295  0.4295  0.3991  0.3991  0.2838
  0.2838  0.2655  0.2655  0.2554  0.2319  0.1387  0.2065  0.1541  0.1614  0.1924
  0.1820

[...]

--------------------------------------- Iteration      1(  33)  ---------------------------------------

 eigenvalue-minimisations  :  9264
 total energy-change (2. order) : 0.6172891E-04  (-0.7557829E-05)
 number of electron     198.0000009 magnetization
 augmentation part       33.8046082 magnetization

 Free energy of the ion-electron system (eV)
  alpha Z        PSCENC =      1206.99273337
  Ewald energy   TEWEN  =    -11461.91017046
  -Hartree energ DENC   =     -2971.13897780
  -exchange      EXHF   =         0.00000000
  -V(xc)+E(xc)   XCENC  =      -888.02142700
  PAW double counting   =     18894.15169233   -17384.62186784
  entropy T*S    EENTRO =        -0.01243848
  eigenvalues    EBANDS =      -720.07647444
  atomic energy  EATOM  =     13005.90793652
  Solvation  Ediel_sol  =         0.00000000
  free energy    TOTEN  =      -318.72899378 eV

  energy without entropy =     -318.71655530  energy(sigma->0) =     -318.72484762

 average (electrostatic) potential at core
  the test charge radii are     1.0703  1.2296  1.2538  1.2598  1.2064
  (the norm of the test charge is              1.0000)
       1 -80.9525       2 -80.9932       3 -80.8212       4 -80.9596       5 -80.9608
       6 -80.9831       7 -35.8931       8 -36.0061       9 -35.9985      10 -35.9357
      11 -35.7959      12 -35.9125      13 -33.7824      14 -33.6177      15 -33.7442
      16 -33.7731      17 -33.6344      18 -33.7425      19 -22.3040      20 -22.2413
      21 -22.3361      22 -22.4080      23 -22.3942      24 -22.2291      25 -38.7178
      26 -38.7836      27 -38.6938      28 -38.7566      29 -38.6986      30 -38.8395

 E-fermi :   6.5463     XC(G=0): -12.5306     alpha+bet :-15.0428

 k-point     1 :       0.0000    0.0000    0.0000
  band No.  band energies     occupation
      1     -47.4491      2.00000
      2     -47.4280      2.00000
      3     -47.3865      2.00000
      4     -47.3353      2.00000
      5     -47.3034      2.00000
      6     -47.2078      2.00000
      7     -24.1776      2.00000
      8     -24.0259      2.00000
      9     -23.8729      2.00000
     10     -23.8288      2.00000
     11     -23.6092      2.00000
     12     -23.6040      2.00000
     13     -23.5994      2.00000
     14     -23.5503      2.00000
     15     -23.5335      2.00000
     16     -23.5150      2.00000
     17     -23.4897      2.00000
     18     -23.4464      2.00000
     19     -23.4060      2.00000
     20     -23.3856      2.00000
     21     -23.2486      2.00000
     22     -23.2307      2.00000
     23     -23.0832      2.00000
     24     -22.8591      2.00000
     25      -0.2233      2.00000
     26       1.0719      2.00000
     27       1.4294      2.00000
     28       2.2294      2.00000
     29       2.3663      2.00000
     30       2.4433      2.00000
     31       2.5498      2.00000
     32       2.6768      2.00000
     33       2.7244      2.00000
     34       2.8048      2.00000
     35       2.8622      2.00000
     36       2.9207      2.00000
     37       2.9805      2.00000
     38       3.0355      2.00000
     39       3.1552      2.00000
     40       3.1835      2.00000
     41       3.2755      2.00000
     42       3.3716      2.00000
     43       3.4767      2.00000
     44       3.5243      2.00000
     45       3.5990      2.00000
     46       3.6435      2.00000
     47       3.7002      2.00000
     48       3.7152      2.00000
     49       3.8782      2.00000
     50       3.9117      2.00000
     51       4.0063      2.00000
     52       4.0573      2.00000
     53       4.1380      2.00000
     54       4.1774      2.00000
     55       4.3105      2.00000
     56       4.3831      2.00000
     57       4.4663      2.00000
     58       4.5139      2.00000
     59       4.6474      2.00000
     60       4.6833      2.00000
[...]
    106       7.1171     -0.00041
    107       7.3570     -0.00000
    108       7.5081     -0.00000
    109       7.5439     -0.00000
    110       7.6295     -0.00000
    111       7.9972     -0.00000
    112       8.1592     -0.00000
    113       8.3027     -0.00000
    114       8.3963     -0.00000
    115       8.4484     -0.00000
    116       8.4585     -0.00000
    117       8.4801     -0.00000
    118       8.5096     -0.00000
    119       8.5846     -0.00000
    120       8.6186     -0.00000

[...]

 k-point    63 :      -0.2000   -0.2000    0.4000
  band No.  band energies     occupation
      1     -47.4467      2.00000
      2     -47.4227      2.00000
      3     -47.3836      2.00000
      4     -47.3340      2.00000
      5     -47.3027      2.00000
      6     -47.2198      2.00000
      7     -24.0826      2.00000
      8     -24.0149      2.00000
      9     -23.8700      2.00000
     10     -23.8238      2.00000
     11     -23.6086      2.00000
     12     -23.6064      2.00000
     13     -23.5949      2.00000
     14     -23.5527      2.00000
     15     -23.5329      2.00000
     16     -23.5201      2.00000
     17     -23.4922      2.00000
     18     -23.4483      2.00000
     19     -23.4164      2.00000
     20     -23.3881      2.00000
     21     -23.2520      2.00000
     22     -23.2318      2.00000
     23     -23.0856      2.00000
     24     -22.9845      2.00000
     25       0.3499      2.00000
     26       0.6304      2.00000
     27       2.2046      2.00000
     28       2.4054      2.00000
     29       2.4742      2.00000
     30       2.6236      2.00000
     31       2.7315      2.00000
     32       2.7470      2.00000
     33       2.9003      2.00000
     34       2.9599      2.00000
     35       3.0174      2.00000
     36       3.0717      2.00000
     37       3.1220      2.00000
     38       3.1852      2.00000
     39       3.2331      2.00000
     40       3.3278      2.00000
     41       3.3661      2.00000
     42       3.4026      2.00000
     43       3.4900      2.00000
     44       3.5505      2.00000
     45       3.6628      2.00000
     46       3.6900      2.00000
     47       3.8893      2.00000
     48       3.9298      2.00000
     49       4.0176      2.00000
     50       4.0410      2.00000
     51       4.0914      2.00000
     52       4.1611      2.00000
     53       4.1834      2.00000
     54       4.2675      2.00000
     55       4.3307      2.00000
     56       4.4161      2.00000
     57       4.5584      2.00000
     58       4.6481      2.00000
     59       4.7245      2.00000
     60       4.8085      2.00000
[...]
    106       6.9865     -0.00792
    107       7.0726     -0.00126
    108       7.1593     -0.00013
    109       7.4349     -0.00000
    110       7.5455     -0.00000
    111       7.6050     -0.00000
    112       7.6476     -0.00000
    113       7.7560     -0.00000
    114       8.1824     -0.00000
    115       8.2421     -0.00000
    116       8.3024     -0.00000
    117       8.3977     -0.00000
    118       8.4277     -0.00000
    119       8.4783     -0.00000
    120       8.5266     -0.00000

 soft charge-density along one line, spin component           1
         0         1         2         3         4         5         6         7         8         9
 total charge-density along one line

------------------------ aborting loop because EDIFF is reached ----------------------------------------

  FORCE on cell =-STRESS in cart. coord.  units (eV):
  Direction    XX          YY          ZZ          XY          YZ          ZX
  Alpha Z  1206.99273  1206.99273  1206.99273
  Ewald   -3780.49733 -3464.83311 -4216.60916  -128.31282   443.53574   306.85475
  Hartree  1046.49443  1291.32347   633.77071  -108.70588   400.64018   301.79060
  E(xc)    -889.10547  -888.85004  -888.99829    -0.05883    -0.04820    -0.37166
  Local    -374.58977  -935.60112   474.49417   237.05502  -844.10780  -606.94213
  n-local  -278.60841  -278.83898  -278.53803     0.44564     0.11884     1.18203
  augment   330.59538   330.56456   330.37626    -0.01984    -0.02263    -0.33118
  Kinetic  2729.39174  2729.02791  2728.81511    -1.43285    -0.29507    -1.92336
  Fock        0.00000     0.00000     0.00000     0.00000     0.00000     0.00000
  Total      -9.32669   -10.21458    -9.69649    -1.02955    -0.17895     0.25906
  in kB     -30.97888   -33.92801   -32.20717    -3.41968    -0.59438     0.86046

 VOLUME and BASIS-vectors are now :
  energy-cutoff  :      600.00
  volume of cell :      482.36
      direct lattice vectors                 reciprocal lattice vectors
    -3.180000000 -3.180000000 -3.180000000    -0.136268344 -0.125786164 -0.052410901
     1.590000000  1.590000000 -7.950000000     0.041928721  0.062893082 -0.104821803
     7.950000000 -7.950000000 -1.590000000     0.062893082 -0.062893082  0.000000000

  length of vectors
     5.507921568  8.261882352 11.354871201     0.192712540  0.129232998  0.088944249

 FORCES acting on ions
    electron-ion (+dipol)            ewald-force                    non-local-force                 convergence-correction
   0.150E+03 0.407E+02 -.193E+03   -.150E+03 -.402E+02 0.193E+03   0.369E+00 -.236E+00 -.124E+00   -.413E+00 0.175E+00 0.671E-01
   -.799E+02 -.188E+03 0.111E+03   0.805E+02 0.187E+03 -.111E+03   0.313E-01 -.248E-01 -.207E+00   -.326E+00 0.364E+00 -.219E+00
   -.250E+02 0.809E+02 -.275E+02   0.247E+02 -.805E+02 0.275E+02   0.116E+00 -.740E-02 -.244E+00   0.756E-01 -.364E-01 0.152E-01
   -.607E+02 0.105E+03 -.795E+02   0.610E+02 -.105E+03 0.796E+02   -.680E-01 0.390E-01 -.189E+00   0.226E-01 -.113E+00 0.201E-01
   -.236E+02 -.109E+03 0.252E+03   0.232E+02 0.109E+03 -.252E+03   0.450E-01 0.284E+00 -.217E+00   0.365E+00 -.278E+00 0.247E-01
   0.358E+01 0.768E+02 -.276E+02   -.425E+01 -.765E+02 0.273E+02   0.340E+00 0.579E-01 0.106E-01   0.104E+00 -.938E-01 0.184E-01
   0.118E+02 0.476E+02 -.920E+02   -.116E+02 -.480E+02 0.920E+02   -.113E+00 -.166E+00 0.141E+00   -.889E-01 0.468E-01 0.836E-02
   -.161E+02 0.576E+01 0.127E+02   0.159E+02 -.608E+01 -.124E+02   -.251E+00 -.517E-01 0.229E+00   -.764E-01 0.768E-01 -.304E-03
   0.399E+02 -.500E+02 0.425E+02   -.399E+02 0.502E+02 -.423E+02   -.502E-01 0.129E-01 -.115E+00   -.616E-01 0.630E-01 -.228E-01
   -.833E+02 -.632E+02 0.107E+03   0.832E+02 0.637E+02 -.107E+03   0.249E+00 0.427E-01 -.152E+00   0.382E-01 -.109E-01 0.124E-01
   0.317E+02 0.926E+02 -.707E+02   -.318E+02 -.928E+02 0.710E+02   -.105E+00 -.170E+00 -.201E+00   -.847E-02 -.282E-01 0.878E-01
   0.379E+02 -.511E+02 0.858E+02   -.380E+02 0.511E+02 -.862E+02   0.290E+00 -.156E-01 -.241E+00   -.961E-01 0.196E+00 -.268E-01
   0.547E+02 0.371E+02 -.795E+02   -.546E+02 -.370E+02 0.796E+02   0.440E-02 -.481E+00 0.384E+00   0.276E-01 -.380E-01 -.187E-01
   0.522E+02 0.228E+02 -.131E+03   -.520E+02 -.225E+02 0.131E+03   -.110E+00 0.257E+00 0.861E-01   0.972E-01 -.142E+00 -.111E-01
   -.376E+02 -.361E+02 0.126E+02   0.374E+02 0.364E+02 -.126E+02   0.517E-01 0.154E+00 -.512E-01   -.627E-01 0.764E-01 0.110E-01
   0.342E+00 0.601E+02 -.451E+02   -.692E+00 -.602E+02 0.454E+02   -.309E+00 -.137E+00 0.391E+00   -.543E-01 0.711E-01 0.162E-01
   0.996E+02 0.475E+02 -.975E+02   -.100E+03 -.474E+02 0.981E+02   -.365E+00 -.580E-01 0.553E-01   0.156E+00 -.142E+00 0.540E-01
   -.524E+01 0.512E+01 -.364E+01   0.554E+01 -.525E+01 0.329E+01   0.106E+00 -.262E+00 0.156E+00   -.673E-01 0.810E-01 -.135E-01
   -.165E+02 0.466E+02 -.643E+02   0.168E+02 -.464E+02 0.645E+02   -.146E+00 0.711E-01 0.196E+00   -.424E-01 -.480E-01 0.521E-01
   0.305E+02 0.912E+01 -.378E+02   -.298E+02 -.957E+01 0.378E+02   0.618E-02 -.173E+00 0.862E-01   -.111E+00 0.929E-01 0.721E-01
   -.542E+02 -.172E+02 0.940E+02   0.544E+02 0.170E+02 -.943E+02   -.200E+00 0.850E-01 -.823E-01   0.210E-01 -.367E-01 -.373E-02
   -.698E+01 -.839E+01 0.204E+02   0.678E+01 0.836E+01 -.206E+02   -.233E+00 0.778E-01 -.521E-01   0.670E-01 -.802E-01 -.147E-01
   -.274E+02 -.243E+02 0.763E+02   0.271E+02 0.242E+02 -.757E+02   0.981E-01 -.389E-01 0.232E-01   0.568E-01 0.354E-01 -.585E-01
   0.447E+01 -.540E+01 0.548E+02   -.399E+01 0.512E+01 -.554E+02   0.206E+00 0.998E-01 -.230E+00   -.605E-01 0.427E-01 -.150E-02
   -.228E+02 -.354E+02 0.467E+02   0.226E+02 0.351E+02 -.465E+02   0.207E+00 -.128E-01 0.382E+00   0.881E-01 -.716E-01 0.157E-01
   -.820E+02 -.342E+02 0.901E+02   0.826E+02 0.342E+02 -.906E+02   -.114E+00 0.780E-01 0.173E+00   0.355E-01 -.653E-04 -.680E-01
   -.195E+02 -.749E+02 0.601E+02   0.193E+02 0.754E+02 -.602E+02   0.100E+00 -.151E-01 -.177E-01   0.132E+00 -.140E+00 -.458E-01
   -.187E+02 0.274E+02 -.352E+02   0.189E+02 -.279E+02 0.349E+02   -.140E-02 0.965E-01 -.137E+00   0.394E-01 -.519E-01 -.527E-02
   0.474E+02 0.339E+02 -.861E+02   -.477E+02 -.340E+02 0.865E+02   -.588E-01 -.136E+00 0.150E+00   0.492E-01 -.223E-01 -.511E-03
   0.151E+02 -.417E+02 0.491E+01   -.150E+02 0.418E+02 -.495E+01   0.135E+00 0.374E-01 -.102E+00   -.516E-01 0.777E-01 -.142E-01
   -.707E-01 0.530E+00 -.396E-01   0.178E-12 -.128E-12 0.188E-12   0.229E+00 -.592E+00 0.104E+00   -.145E+00 0.670E-01 -.493E-01

 POSITION                                       TOTAL-FORCE (eV/Angst)
      1.59000     -4.77000    -11.13000         0.063597      0.446267      0.235226
      1.59000     -4.77000     -4.77000         0.323997     -0.145049      0.016269
     -1.59000     -1.59000     -1.59000        -0.119005      0.364425     -0.212323
      0.00000      0.00000      0.00000         0.250662     -0.023026     -0.032147
      6.36000     -6.36000     -3.18000        -0.053191      0.682941     -0.529281
      4.77000     -4.77000     -1.59000        -0.232724      0.269206     -0.342774
      0.00000     -3.18000     -9.54000        -0.004414     -0.547209      0.174900
      1.59000     -4.77000     -7.95000        -0.555535     -0.293238      0.585767
      0.00000     -3.18000     -6.36000        -0.160412      0.292320      0.047548
     -1.59000     -1.59000     -4.77000         0.177275      0.499586     -0.575562
      4.77000     -4.77000     -7.95000        -0.137447     -0.376829      0.258041
      3.18000     -3.18000     -3.18000         0.137628      0.167943     -0.624230
     -1.59000     -1.59000     -7.95000         0.097296     -0.482691      0.450154
      4.77000     -7.95000    -11.13000         0.239672      0.360830     -0.075329
     -0.00000     -3.18000     -3.18000        -0.259004      0.477382     -0.125891
      1.59000     -1.59000     -7.95000        -0.714043     -0.118647      0.784789
      6.36000     -6.36000     -9.54000        -0.846120     -0.103342      0.616468
      3.18000     -3.18000     -6.36000         0.333331     -0.318632     -0.209353
      3.18000     -6.36000     -9.54000         0.085095      0.228710      0.488966
      3.18000     -3.18000     -9.54000         0.557910     -0.536596      0.116790
     -0.00000     -0.00000     -3.18000        -0.029498     -0.169126     -0.405012
      6.36000     -6.36000     -6.36000        -0.365187     -0.029913     -0.266254
      4.77000     -4.77000     -4.77000        -0.234652     -0.082363      0.516449
      1.59000     -1.59000     -1.59000         0.626665     -0.134155     -0.839351
      4.77000     -7.95000     -7.95000         0.067671     -0.365821      0.573809
      3.18000     -6.36000     -6.36000         0.551049      0.131213     -0.390331
      4.77000     -7.95000     -4.77000         0.006868      0.262221     -0.192423
      3.18000     -6.36000     -3.18000         0.190070     -0.442848     -0.465136
      0.00000      0.00000     -6.36000        -0.244321     -0.248581      0.583021
      1.59000     -1.59000     -4.77000         0.246767      0.235021     -0.162800
    total drift:                                0.014194      0.004331      0.014725

  FREE ENERGIE OF THE ION-ELECTRON SYSTEM (eV)
  free  energy   TOTEN  =      -318.72899378 eV

  energy  without entropy=     -318.71655530  energy(sigma->0) =     -318.72484762

 stress matrix after NEB project (eV)
     -9.32669     -1.02955      0.25906
     -1.02955    -10.21458     -0.17895
      0.25906     -0.17895     -9.69649
  FORCES: max atom, RMS     1.067627    0.642857
  FORCE total and by dimension    3.521075    0.846120
  Stress total and by dimension   16.960689   10.214577
 writing wavefunctions