 vasp.5.4.4.18Apr17-6-g9f103f2a35 (build Aug 09 2018 16:20:53) complex

 executed on             LinuxIFC date 2020.04.28  21:18:50

 INCAR:
 POTCAR:    PAW_PBE Nb_sv 25May2007
 POTCAR:    PAW_PBE Mo 08Apr2002
 POTCAR:    PAW_PBE Ta 17Jan2003
 POTCAR:    PAW_PBE Ti 08Apr2002
 POTCAR:    PAW_PBE V 08Apr2002
 POTCAR:    PAW_PBE Nb_sv 25May2007
   VRHFIN =Nb: 4p5s4d

   TITEL  = PAW_PBE Nb_sv 25May2007
   POMASS =   92.910; ZVAL   =   13.000    mass and valenz
   ENMAX  =  293.235; ENMIN  =  219.927 eV

 POTCAR:    PAW_PBE Mo 08Apr2002
   VRHFIN =Mo: 4p5s4d

   TITEL  = PAW_PBE Mo 08Apr2002
   POMASS =   95.940; ZVAL   =    6.000    mass and valenz
   ENMAX  =  224.584; ENMIN  =  168.438 eV

 POTCAR:    PAW_PBE Ta 17Jan2003
   VRHFIN =Ta:  6s5d

   TITEL  = PAW_PBE Ta 17Jan2003
   POMASS =  180.948; ZVAL   =    5.000    mass and valenz
   ENMAX  =  223.667; ENMIN  =  167.750 eV

 POTCAR:    PAW_PBE Ti 08Apr2002
   VRHFIN =Ti: d3 s1

[...]

 POTCAR:    PAW_PBE V 08Apr2002
   VRHFIN =V: p6 d4 s1

   TITEL  = PAW_PBE V 08Apr2002
   POMASS =   50.941; ZVAL   =    5.000    mass and valenz
   ENMAX  =  192.543; ENMIN  =  144.408 eV

 Optimization of the real space projectors (new method)

 maximal supplied QI-value         = 15.68
 optimisation between [QCUT,QGAM] = [ 12.55, 25.10] = [ 44.09,176.36] Ry
 Optimized for a Real-space Cutoff    1.56 Angstroem

   l    n(q)    QCUT    max X(q) W(low)/X(q) W(high)/X(q)  e(spline)
   0     12    12.548    10.201    0.21E-04    0.36E-05    0.83E-07
   0     12    12.548     8.174    0.31E-04    0.62E-05    0.15E-06
   1     11    12.548     3.488    0.79E-05    0.23E-04    0.21E-06
   1     11    12.548     4.917    0.56E-04    0.13E-03    0.11E-05
   2     11    12.548   153.744    0.25E-03    0.10E-03    0.15E-05
   2     11    12.548   126.342    0.25E-03    0.10E-03    0.15E-05
 Optimization of the real space projectors (new method)

[...]

   l    n(q)    QCUT    max X(q) W(low)/X(q) W(high)/X(q)  e(spline)
   2     11    12.478    49.363    0.45E-03    0.34E-03    0.89E-06
   2     11    12.478    47.669    0.44E-03    0.33E-03    0.87E-06
   0     12    12.478    26.374    0.17E-03    0.37E-04    0.21E-05
   0     12    12.478    11.549    0.13E-03    0.31E-04    0.17E-05
   1     11    12.478     9.492    0.91E-05    0.64E-04    0.34E-06
 Optimization of the real space projectors (new method)

 maximal supplied QI-value         = 13.98
 optimisation between [QCUT,QGAM] = [ 12.45, 25.03] = [ 43.38,175.46] Ry
 Optimized for a Real-space Cutoff    1.56 Angstroem

   l    n(q)    QCUT    max X(q) W(low)/X(q) W(high)/X(q)  e(spline)
   2     11    12.446    96.114    0.19E-03    0.47E-04    0.85E-06
   2     11    12.446    88.986    0.19E-03    0.46E-04    0.86E-06
   0     12    12.446    20.919    0.37E-04    0.64E-04    0.43E-06
   0     12    12.446     9.593    0.25E-04    0.48E-04    0.33E-06
   1     11    12.446    11.615    0.75E-04    0.30E-04    0.59E-06
   1     11    12.446     7.031    0.53E-04    0.23E-04    0.40E-06

  PAW_PBE Nb_sv 25May2007               :
  PAW_PBE Mo 08Apr2002                  :
  PAW_PBE Ta 17Jan2003                  :
  PAW_PBE Ti 08Apr2002                  :
  PAW_PBE V 08Apr2002                   :

 POSCAR: Nb - Mo - Ta - Ti - V SQS-30 BCC
  positions in direct lattice
 exchange correlation table for  LEXCH =       14
   RHO(1)=    0.500       N(1)  =     2000
   RHO(2)=  100.500       N(2)  =     4000

 VTST: version 3.2, (02/03/18)

 CHAIN: initializing optimizer

 OPT: Using VASP Conjugate-Gradient optimizer
 CHAIN: Read ICHAIN            0

 POSCAR: Nb - Mo - Ta - Ti - V SQS-30 BCC
  positions in direct lattice

 ion  position               nearest neighbor table
   1  0.967  0.933  0.400-  18 2.77   7 2.77  24 2.77  20 2.77  20 2.77  19 2.77   6 2.77   2 2.77
                            16 3.20   8 3.20  15 3.20  11 3.20  12 3.20
   2  0.633  0.267  0.400-  18 2.77  26 2.77   9 2.77  12 2.77  12 2.77  28 2.77  15 2.77   1 2.77
                             8 3.20
   3  0.500  0.000  0.000-  13 2.77  21 2.77  17 2.77  15 2.77   4 2.77   4 2.77  27 2.77  16 2.77
                            10 3.20  14 3.20   7 3.20
   4  0.000  0.000  0.000-  10 2.77  29 2.77  24 2.77  14 2.77   3 2.77   3 2.77   7 2.77   5 2.77
                            15 3.20  13 3.20  17 3.20  16 3.20
   5  0.100  0.200  0.800-  25 2.77  17 2.77   6 2.77  21 2.77  23 2.77  27 2.77  27 2.77   4 2.77
                            14 3.20  10 3.20
   6  0.033  0.067  0.600-  26 2.77   5 2.77  14 2.77  28 2.77  28 2.77  12 2.77   1 2.77  11 2.77
                            17 3.20
   7  0.900  0.800  0.200-  30 2.77  15 2.77   1 2.77  13 2.77   8 2.77  16 2.77  16 2.77   4 2.77
                             9 3.20  20 3.20  24 3.20  29 3.20  18 3.20   3 3.20
   8  0.800  0.600  0.400-  20 2.77  12 2.77   9 2.77  19 2.77   7 2.77  18 2.77  18 2.77  26 2.77
                             1 3.20  30 3.20  11 3.20   2 3.20  16 3.20  23 3.20
   9  0.733  0.467  0.200-  16 2.77   8 2.77   2 2.77  30 2.77  30 2.77  13 2.77  10 2.77  24 2.77
                             7 3.20  18 3.20  12 3.20  29 3.20  15 3.20  21 3.20
  10  0.667  0.333  0.000-   4 2.77  27 2.77  21 2.77  21 2.77  25 2.77  15 2.77   9 2.77  29 2.77
                             3 3.20   5 3.20  22 3.20  24 3.20  13 3.20  30 3.20
  11  0.367  0.733  0.600-  26 2.77  18 2.77  22 2.77  19 2.77  19 2.77  20 2.77  17 2.77   6 2.77
                             8 3.20  23 3.20  25 3.20   1 3.20  28 3.20  14 3.20
  12  0.133  0.267  0.400-   8 2.77  23 2.77  30 2.77   2 2.77   2 2.77   6 2.77  24 2.77  20 2.77
                            18 3.20  26 3.20   9 3.20  28 3.20  15 3.20   1 3.20
  13  0.833  0.667  0.000-   3 2.77   7 2.77  29 2.77  29 2.77   9 2.77  14 2.77  25 2.77  21 2.77
                             4 3.20  16 3.20  30 3.20  17 3.20  10 3.20  22 3.20
  14  0.933  0.867  0.800-  27 2.77   4 2.77   6 2.77  17 2.77  13 2.77  17 2.77  19 2.77  22 2.77
                             3 3.20   5 3.20  28 3.20  29 3.20  11 3.20  25 3.20
  15  0.567  0.133  0.200-   7 2.77   3 2.77  24 2.77  20 2.77  10 2.77  24 2.77   2 2.77  30 2.77
                             4 3.20  16 3.20   1 3.20  21 3.20  12 3.20   9 3.20
  16  0.400  0.800  0.200-   9 2.77  24 2.77  20 2.77  29 2.77  18 2.77   7 2.77   7 2.77   3 2.77
                            30 3.20   1 3.20  15 3.20  13 3.20   8 3.20   4 3.20
  17  0.433  0.867  0.800-   5 2.77   3 2.77  28 2.77  14 2.77  29 2.77  14 2.77  11 2.77  25 2.77
                            27 3.20   4 3.20   6 3.20  13 3.20  19 3.20  22 3.20
  18  0.300  0.600  0.400-   1 2.77   2 2.77  30 2.77  11 2.77  16 2.77   8 2.77   8 2.77  23 2.77
                            20 3.20   9 3.20  12 3.20  19 3.20   7 3.20  26 3.20
  19  0.867  0.733  0.600-  23 2.77   8 2.77  25 2.77  11 2.77  11 2.77   1 2.77  14 2.77  28 2.77
                            18 3.20  17 3.20
  20  0.467  0.933  0.400-   8 2.77  16 2.77  15 2.77   1 2.77   1 2.77  11 2.77  28 2.77  12 2.77
                             7 3.20  18 3.20
  21  0.167  0.333  0.000-   3 2.77   5 2.77  10 2.77  10 2.77  22 2.77  24 2.77  30 2.77  13 2.77
                            15 3.20   9 3.20
  22  0.267  0.533  0.800-  27 2.77  23 2.77  11 2.77  25 2.77  25 2.77  21 2.77  29 2.77  14 2.77
                            10 3.20  13 3.20  17 3.20
  23  0.200  0.400  0.600-  28 2.77  19 2.77  22 2.77  12 2.77   5 2.77  26 2.77  26 2.77  18 2.77
                            11 3.20   8 3.20
  24  0.067  0.133  0.200-  16 2.77   4 2.77  15 2.77   1 2.77  15 2.77  21 2.77  12 2.77   9 2.77
                             7 3.20  10 3.20
  25  0.767  0.533  0.800-   5 2.77  26 2.77  19 2.77  22 2.77  22 2.77  10 2.77  13 2.77  17 2.77
                            11 3.20  14 3.20
  26  0.700  0.400  0.600-   6 2.77  11 2.77  25 2.77   2 2.77  27 2.77  23 2.77  23 2.77   8 2.77
                            12 3.20  18 3.20
  27  0.600  0.200  0.800-  22 2.77  14 2.77  28 2.77  10 2.77  26 2.77   5 2.77   5 2.77   3 2.77
                            17 3.20
  28  0.533  0.067  0.600-  23 2.77  27 2.77  17 2.77   6 2.77   6 2.77   2 2.77  20 2.77  19 2.77
                            14 3.20  12 3.20  11 3.20
  29  0.333  0.667  0.000-   4 2.77  16 2.77  13 2.77  13 2.77  30 2.77  17 2.77  22 2.77  10 2.77
                             7 3.20   9 3.20  14 3.20
  30  0.233  0.467  0.200-   7 2.77  18 2.77  12 2.77   9 2.77   9 2.77  29 2.77  21 2.77  15 2.77
                            16 3.20   8 3.20  13 3.20  10 3.20

  LATTYP: Found a triclinic cell.
 ALAT       =     5.5425625842
 B/A-ratio  =     2.8722813233
 C/A-ratio  =     2.0615528128
 COS(alpha) =     0.0140733444
 COS(beta)  =     0.0808452083
 COS(gamma) =     0.8703882798

  Lattice vectors:

 A1 = (   3.2000000000,   3.2000000000,   3.2000000000)
 A2 = (  11.2000000000,  11.2000000000,   1.6000000000)
 A3 = (  -8.0000000000,   8.0000000000,   1.6000000000)

Analysis of symmetry for initial positions (statically):
 Subroutine PRICEL returns:
 Original cell was already a primitive cell.

 Routine SETGRP: Setting up the symmetry group for a
 triclinic supercell.

 Subroutine GETGRP returns: Found  1 space group operations
 (whereof  1 operations were pure point group operations)
 out of a pool of  2 trial point group operations.

The static configuration has the point symmetry C_1 .

Analysis of symmetry for dynamics (positions and initial velocities):
 Subroutine PRICEL returns:
 Original cell was already a primitive cell.

 Routine SETGRP: Setting up the symmetry group for a
 triclinic supercell.

 Subroutine GETGRP returns: Found  1 space group operations
 (whereof  1 operations were pure point group operations)
 out of a pool of  2 trial point group operations.

The dynamic configuration has the point symmetry C_1 .

 Subroutine INISYM returns: Found  1 space group operations
 (whereof  1 operations are pure point group operations),
 and found     1 'primitive' translations

 KPOINTS: k-points

Automatic generation of k-mesh.
Space group operators:
 irot       det(A)        alpha          n_x          n_y          n_z        tau_x        tau_y        tau_z
    1     1.000000     0.000000     1.000000     0.000000     0.000000     0.000000     0.000000     0.000000

 Subroutine IBZKPT returns following result:

 Found     63 irreducible k-points:

 Following reciprocal coordinates:
            Coordinates               Weight
  0.000000  0.000000  0.000000      1.000000
  0.200000  0.000000  0.000000      2.000000
  0.400000  0.000000  0.000000      2.000000
  0.000000  0.200000 -0.000000      2.000000
  0.200000  0.200000 -0.000000      2.000000
  0.400000  0.200000 -0.000000      2.000000
 -0.400000  0.200000  0.000000      2.000000
 -0.200000  0.200000 -0.000000      2.000000
  0.000000  0.400000 -0.000000      2.000000
  0.200000  0.400000  0.000000      2.000000
  0.400000  0.400000 -0.000000      2.000000
 -0.400000  0.400000 -0.000000      2.000000
 -0.200000  0.400000  0.000000      2.000000
  0.000000  0.000000  0.200000      2.000000
  0.200000  0.000000  0.200000      2.000000
  0.400000  0.000000  0.200000      2.000000
[...]
 augmentation part       33.7878933 magnetization

 Broyden mixing:
  rms(total) = 0.11057E-01    rms(broyden)= 0.11057E-01
  rms(prec ) = 0.15810E-01
  weight for this iteration     100.00

 eigenvalues of (default mixing * dielectric matrix)
  average eigenvalue GAMMA=   0.9200
  6.9152  2.8058  2.4321  2.4321  1.7773  1.1000  1.1000  0.8404  0.7411  0.7411
  0.6066  0.6066  0.5265  0.4768  0.4768  0.3978  0.3978  0.3828  0.3828  0.3060
  0.3060  0.2463  0.2463  0.2408  0.2297  0.1542  0.1542  0.2074  0.1962  0.1736

[...]

--------------------------------------- Iteration      1(  32)  ---------------------------------------

 eigenvalue-minimisations  : 13744
 total energy-change (2. order) :-0.4789492E-05  (-0.3926988E-04)
 number of electron     198.0000009 magnetization
 augmentation part       33.7878933 magnetization

 Free energy of the ion-electron system (eV)
  alpha Z        PSCENC =      1184.50276941
  Ewald energy   TEWEN  =    -11390.27323190
  -Hartree energ DENC   =     -2986.59171506
  -exchange      EXHF   =         0.00000000
  -V(xc)+E(xc)   XCENC  =      -889.44170336
  PAW double counting   =     18422.87130226   -16913.21263018
  entropy T*S    EENTRO =        -0.01159435
  eigenvalues    EBANDS =      -752.19979100
  atomic energy  EATOM  =     13005.90793652
  Solvation  Ediel_sol  =         0.00000000
  free energy    TOTEN  =      -318.44865766 eV

  energy without entropy =     -318.43706331  energy(sigma->0) =     -318.44479288

 average (electrostatic) potential at core
  the test charge radii are     1.0703  1.2296  1.2538  1.2598  1.2064
  (the norm of the test charge is              1.0000)
       1 -81.1908       2 -81.2228       3 -81.0584       4 -81.1923       5 -81.1965
       6 -81.2156       7 -36.1151       8 -36.2299       9 -36.2188      10 -36.1604
      11 -36.0198      12 -36.1319      13 -34.0413      14 -33.8730      15 -33.9987
      16 -34.0309      17 -33.8896      18 -33.9982      19 -22.5383      20 -22.4777
      21 -22.5745      22 -22.6447      23 -22.6230      24 -22.4656      25 -38.9355
      26 -38.9942      27 -38.9091      28 -38.9644      29 -38.9179      30 -39.0542

 E-fermi :   6.3642     XC(G=0): -12.4368     alpha+bet :-14.7625

 k-point     1 :       0.0000    0.0000    0.0000
  band No.  band energies     occupation
      1     -47.6646      2.00000
      2     -47.6439      2.00000
      3     -47.6048      2.00000
      4     -47.5597      2.00000
      5     -47.5300      2.00000
      6     -47.4346      2.00000
      7     -24.3491      2.00000
      8     -24.2082      2.00000
      9     -24.0628      2.00000
     10     -24.0218      2.00000
     11     -23.8138      2.00000
     12     -23.8085      2.00000
     13     -23.8045      2.00000
     14     -23.7582      2.00000
     15     -23.7431      2.00000
     16     -23.7252      2.00000
     17     -23.7039      2.00000
     18     -23.6602      2.00000
     19     -23.6185      2.00000
     20     -23.6010      2.00000
     21     -23.4732      2.00000
     22     -23.4558      2.00000
     23     -23.3169      2.00000
     24     -23.1012      2.00000
     25      -0.3536      2.00000
     26       0.9216      2.00000
     27       1.2769      2.00000
     28       2.0888      2.00000
     29       2.2438      2.00000
     30       2.3153      2.00000
     31       2.4318      2.00000
     32       2.5621      2.00000
     33       2.6000      2.00000
     34       2.6879      2.00000
     35       2.7323      2.00000
     36       2.8077      2.00000
     37       2.8673      2.00000
     38       2.9133      2.00000
     39       3.0434      2.00000
     40       3.0794      2.00000
     41       3.1630      2.00000
     42       3.2703      2.00000
     43       3.3737      2.00000
     44       3.4133      2.00000
     45       3.4752      2.00000
     46       3.5269      2.00000
     47       3.5914      2.00000
     48       3.6072      2.00000
     49       3.7455      2.00000
     50       3.7896      2.00000
     51       3.8771      2.00000
     52       3.9377      2.00000
     53       4.0099      2.00000
     54       4.0467      2.00000
     55       4.1830      2.00000
     56       4.2484      2.00000
     57       4.3290      2.00000
     58       4.3720      2.00000
     59       4.5190      2.00000
     60       4.5538      2.00000
[...]
    106       6.8987     -0.00104
    107       7.1324     -0.00000
    108       7.2801     -0.00000
    109       7.3087     -0.00000
    110       7.3929     -0.00000
    111       7.7859     -0.00000
    112       7.9435     -0.00000
    113       8.0818     -0.00000
    114       8.1711     -0.00000
    115       8.2071     -0.00000
    116       8.2341     -0.00000
    117       8.2527     -0.00000
    118       8.2840     -0.00000
    119       8.3691     -0.00000
    120       8.3935     -0.00000

[...]

 k-point    63 :      -0.2000   -0.2000    0.4000
  band No.  band energies     occupation
      1     -47.6626      2.00000
      2     -47.6390      2.00000
      3     -47.6021      2.00000
      4     -47.5585      2.00000
      5     -47.5293      2.00000
      6     -47.4456      2.00000
      7     -24.2599      2.00000
      8     -24.1969      2.00000
      9     -24.0600      2.00000
     10     -24.0170      2.00000
     11     -23.8150      2.00000
     12     -23.8097      2.00000
     13     -23.7996      2.00000
     14     -23.7601      2.00000
     15     -23.7423      2.00000
     16     -23.7297      2.00000
     17     -23.7063      2.00000
     18     -23.6618      2.00000
     19     -23.6283      2.00000
     20     -23.6034      2.00000
     21     -23.4764      2.00000
     22     -23.4568      2.00000
     23     -23.3190      2.00000
     24     -23.2196      2.00000
     25       0.2078      2.00000
     26       0.4856      2.00000
     27       2.0535      2.00000
     28       2.2585      2.00000
     29       2.3387      2.00000
     30       2.4967      2.00000
     31       2.6081      2.00000
     32       2.6285      2.00000
     33       2.7670      2.00000
     34       2.8354      2.00000
     35       2.8797      2.00000
     36       2.9511      2.00000
     37       2.9996      2.00000
     38       3.0524      2.00000
     39       3.1203      2.00000
     40       3.2097      2.00000
     41       3.2409      2.00000
     42       3.2806      2.00000
     43       3.3663      2.00000
     44       3.4293      2.00000
     45       3.5468      2.00000
     46       3.5729      2.00000
     47       3.7627      2.00000
     48       3.8047      2.00000
     49       3.8895      2.00000
     50       3.9174      2.00000
     51       3.9669      2.00000
     52       4.0308      2.00000
     53       4.0566      2.00000
     54       4.1451      2.00000
     55       4.2052      2.00000
     56       4.2877      2.00000
     57       4.4277      2.00000
     58       4.5134      2.00000
     59       4.5898      2.00000
     60       4.6727      2.00000
[...]
    106       6.7716     -0.01416
    107       6.8556     -0.00280
    108       6.9366     -0.00040
    109       7.2371     -0.00000
    110       7.3437     -0.00000
    111       7.3929     -0.00000
    112       7.4331     -0.00000
    113       7.5193     -0.00000
    114       7.9675     -0.00000
    115       8.0256     -0.00000
    116       8.0837     -0.00000
    117       8.1770     -0.00000
    118       8.2054     -0.00000
    119       8.2562     -0.00000
    120       8.3051     -0.00000

 soft charge-density along one line, spin component           1
         0         1         2         3         4         5         6         7         8         9
 total charge-density along one line

------------------------ aborting loop because EDIFF is reached ----------------------------------------

  FORCE on cell =-STRESS in cart. coord.  units (eV):
  Direction    XX          YY          ZZ          XY          YZ          ZX
  Alpha Z  1184.50277  1184.50277  1184.50277
  Ewald   -3756.86922 -3443.17791 -4190.25536  -127.51087   440.76364   304.93691
  Hartree  1049.96244  1294.84262   641.18023  -107.94226   397.62763   298.84817
  E(xc)    -885.19921  -884.95167  -885.09435    -0.06426    -0.05119    -0.38064
  Local    -380.84693  -940.02144   461.41863   235.40949  -838.39521  -602.00170
  n-local  -279.67041  -279.83311  -279.55072     0.46672     0.15004     1.26691
  augment   331.54459   331.51620   331.32539    -0.01413    -0.01114    -0.31565
  Kinetic  2716.75789  2716.46096  2716.17077    -1.38178    -0.15160    -1.88019
  Fock        0.00000     0.00000     0.00000     0.00000     0.00000     0.00000
  Total     -19.81808   -20.66157   -20.30263    -1.03709    -0.06783     0.47381
  in kB     -64.59976   -67.34926   -66.17923    -3.38055    -0.22111     1.54444

 VOLUME and BASIS-vectors are now :
  energy-cutoff  :      600.00
  volume of cell :      491.52
      direct lattice vectors                 reciprocal lattice vectors
    -3.200000000 -3.200000000 -3.200000000    -0.135416667 -0.125000000 -0.052083333
     1.600000000  1.600000000 -8.000000000     0.041666667  0.062500000 -0.104166667
     8.000000000 -8.000000000 -1.600000000     0.062500000 -0.062500000  0.000000000

  length of vectors
     5.542562584  8.313843876 11.426285486     0.191508087  0.128425292  0.088388348

 FORCES acting on ions
    electron-ion (+dipol)            ewald-force                    non-local-force                 convergence-correction
   0.148E+03 0.404E+02 -.190E+03   -.148E+03 -.397E+02 0.191E+03   0.354E+00 -.231E+00 -.110E+00   0.259E+00 -.681E-01 -.146E+00
   -.796E+02 -.185E+03 0.110E+03   0.795E+02 0.185E+03 -.109E+03   0.559E-01 -.402E-01 -.208E+00   0.285E+00 -.355E+00 0.411E-01
   -.244E+02 0.796E+02 -.270E+02   0.244E+02 -.795E+02 0.272E+02   0.108E+00 -.154E-02 -.262E+00   -.136E+00 0.182E+00 -.657E-01
   -.599E+02 0.103E+03 -.784E+02   0.603E+02 -.104E+03 0.786E+02   -.591E-01 0.212E-01 -.173E+00   -.107E+00 0.152E+00 -.353E-01
   -.226E+02 -.108E+03 0.248E+03   0.229E+02 0.108E+03 -.249E+03   0.633E-01 0.301E+00 -.247E+00   -.347E+00 0.220E+00 0.817E-01
   0.347E+01 0.755E+02 -.270E+02   -.420E+01 -.755E+02 0.269E+02   0.333E+00 0.672E-01 -.567E-02   0.141E+00 0.140E+00 -.194E+00
   0.115E+02 0.471E+02 -.908E+02   -.114E+02 -.474E+02 0.908E+02   -.110E+00 -.186E+00 0.151E+00   0.572E-01 -.608E-02 -.622E-01
   -.162E+02 0.596E+01 0.125E+02   0.157E+02 -.601E+01 -.122E+02   -.254E+00 -.543E-01 0.233E+00   0.105E+00 -.160E+00 0.538E-01
   0.393E+02 -.492E+02 0.419E+02   -.394E+02 0.496E+02 -.418E+02   -.541E-01 0.712E-02 -.110E+00   0.525E-01 -.111E+00 0.452E-01
   -.821E+02 -.625E+02 0.105E+03   0.821E+02 0.629E+02 -.106E+03   0.241E+00 0.598E-01 -.174E+00   -.807E-01 0.300E-03 0.898E-01
   0.314E+02 0.915E+02 -.697E+02   -.314E+02 -.916E+02 0.701E+02   -.114E+00 -.177E+00 -.186E+00   -.237E-01 -.139E-01 0.168E-01
   0.373E+02 -.502E+02 0.847E+02   -.375E+02 0.505E+02 -.851E+02   0.280E+00 -.245E-02 -.252E+00   0.120E+00 -.135E+00 0.184E-01
   0.541E+02 0.365E+02 -.785E+02   -.539E+02 -.366E+02 0.786E+02   0.301E-01 -.464E+00 0.394E+00   -.165E-01 0.504E-01 -.521E-01
   0.517E+02 0.222E+02 -.130E+03   -.513E+02 -.222E+02 0.130E+03   -.114E+00 0.248E+00 0.102E+00   -.257E-01 0.112E+00 -.674E-01
   -.373E+02 -.355E+02 0.124E+02   0.369E+02 0.359E+02 -.125E+02   0.554E-01 0.163E+00 -.836E-01   0.471E-01 -.629E-01 0.819E-02
   0.230E+00 0.594E+02 -.445E+02   -.684E+00 -.594E+02 0.449E+02   -.335E+00 -.147E+00 0.379E+00   0.571E-01 -.406E-02 -.448E-01
   0.986E+02 0.467E+02 -.962E+02   -.990E+02 -.468E+02 0.968E+02   -.384E+00 -.610E-01 0.928E-01   -.430E-01 0.109E+00 -.838E-01
   -.534E+01 0.528E+01 -.369E+01   0.547E+01 -.519E+01 0.325E+01   0.967E-01 -.261E+00 0.140E+00   0.834E-01 -.124E+00 0.455E-01
   -.163E+02 0.460E+02 -.634E+02   0.166E+02 -.458E+02 0.637E+02   -.143E+00 0.713E-01 0.191E+00   -.445E-02 0.796E-02 0.310E-02
   0.299E+02 0.917E+01 -.372E+02   -.294E+02 -.945E+01 0.373E+02   0.246E-01 -.177E+00 0.858E-01   0.741E-01 -.347E-01 -.525E-01
   -.535E+02 -.171E+02 0.928E+02   0.537E+02 0.168E+02 -.931E+02   -.190E+00 0.748E-01 -.947E-01   -.503E-01 0.386E-03 0.473E-01
   -.669E+01 -.841E+01 0.201E+02   0.670E+01 0.826E+01 -.203E+02   -.216E+00 0.649E-01 -.460E-01   -.110E+00 0.683E-01 0.386E-01
   -.270E+02 -.239E+02 0.752E+02   0.267E+02 0.239E+02 -.748E+02   0.915E-01 -.397E-01 0.303E-01   -.354E-01 -.255E-01 0.469E-01
   0.431E+01 -.526E+01 0.541E+02   -.394E+01 0.506E+01 -.547E+02   0.214E+00 0.106E+00 -.246E+00   0.408E-01 -.430E-01 0.905E-02
   -.223E+02 -.352E+02 0.461E+02   0.223E+02 0.347E+02 -.460E+02   0.199E+00 -.765E-02 0.384E+00   -.140E+00 0.106E+00 0.432E-01
   -.809E+02 -.337E+02 0.888E+02   0.816E+02 0.338E+02 -.894E+02   -.894E-01 0.800E-01 0.158E+00   -.316E-01 -.223E-01 0.775E-01
   -.190E+02 -.743E+02 0.593E+02   0.190E+02 0.744E+02 -.595E+02   0.947E-01 0.108E-01 -.233E-01   -.137E+00 0.112E+00 0.342E-01
   -.185E+02 0.270E+02 -.347E+02   0.187E+02 -.276E+02 0.345E+02   0.741E-02 0.948E-01 -.139E+00   0.368E-01 0.206E-01 -.832E-01
   0.469E+02 0.334E+02 -.850E+02   -.471E+02 -.336E+02 0.855E+02   -.590E-01 -.142E+00 0.169E+00   -.724E-02 0.701E-01 -.452E-01
   0.149E+02 -.411E+02 0.479E+01   -.148E+02 0.413E+02 -.489E+01   0.122E+00 0.489E-01 -.104E+00   0.509E-01 -.797E-01 0.407E-01
   -.365E+00 0.472E+00 0.154E+00   0.817E-13 -.853E-13 -.959E-13   0.249E+00 -.574E+00 0.451E-01   0.116E+00 0.104E+00 -.191E+00

 POSITION                                       TOTAL-FORCE (eV/Angst)
      1.60000     -4.80000    -11.20000         0.014392      0.441225      0.247999
      1.60000     -4.80000     -4.80000         0.278981     -0.093443     -0.002871
     -1.60000     -1.60000     -1.60000        -0.124748      0.330208     -0.175084
      0.00000      0.00000      0.00000         0.253039     -0.024332     -0.013122
      6.40000     -6.40000     -3.20000        -0.044526      0.635740     -0.463929
      4.80000     -4.80000     -1.60000        -0.258972      0.238850     -0.317672
      0.00000     -3.20000     -9.60000         0.015448     -0.523352      0.158633
      1.60000     -4.80000     -8.00000        -0.584836     -0.260412      0.582007
      0.00000     -3.20000     -6.40000        -0.138478      0.301454      0.032514
     -1.60000     -1.60000     -4.80000         0.174964      0.442529     -0.555480
      4.80000     -4.80000     -8.00000        -0.106944     -0.332655      0.249752
      3.20000     -3.20000     -3.20000         0.140740      0.180285     -0.612354
     -1.60000     -1.60000     -8.00000         0.149615     -0.449973      0.409525
      4.80000     -8.00000    -11.20000         0.256911      0.322663     -0.076599
     -0.00000     -3.20000     -3.20000        -0.285552      0.466921     -0.142635
      1.60000     -1.60000     -8.00000        -0.731102     -0.133510      0.761534
      6.40000     -6.40000     -9.60000        -0.809000     -0.104708      0.638047
      3.20000     -3.20000     -6.40000         0.311019     -0.299899     -0.257055
      3.20000     -6.40000     -9.60000         0.065613      0.231356      0.454596
      3.20000     -3.20000     -9.60000         0.535074     -0.498716      0.145253
     -0.00000     -0.00000     -3.20000        -0.026950     -0.171122     -0.386132
      6.40000     -6.40000     -6.40000        -0.318652     -0.015042     -0.286591
      4.80000     -4.80000     -4.80000        -0.248135     -0.049432      0.516980
      1.60000     -1.60000     -1.60000         0.622597     -0.138933     -0.821191
      4.80000     -8.00000     -8.00000         0.098994     -0.387477      0.541744
      3.20000     -6.40000     -6.40000         0.524391      0.156112     -0.397800
      4.80000     -8.00000     -4.80000         0.024841      0.210387     -0.166556
      3.20000     -6.40000     -3.20000         0.188624     -0.452814     -0.444883
      0.00000      0.00000     -6.40000        -0.233141     -0.234625      0.548370
      1.60000     -1.60000     -4.80000         0.255792      0.212717     -0.167002
    total drift:                               -0.000211      0.001985      0.008133

  FREE ENERGIE OF THE ION-ELECTRON SYSTEM (eV)
  free  energy   TOTEN  =      -318.44865766 eV

  energy  without entropy=     -318.43706331  energy(sigma->0) =     -318.44479288

 stress matrix after NEB project (eV)
    -19.81808     -1.03709      0.47381
     -1.03709    -20.66157     -0.06783
      0.47381     -0.06783    -20.30263
  FORCES: max atom, RMS     1.064081    0.622582
  FORCE total and by dimension    3.410021    0.821191
  Stress total and by dimension   35.134926   20.661574
 writing wavefunctions