 vasp.5.4.4.18Apr17-6-g9f103f2a35 (build Aug 09 2018 16:20:53) complex

 executed on             LinuxIFC date 2020.04.12  14:29:29

 INCAR:
 POTCAR:    PAW_PBE Nb_sv 25May2007
 POTCAR:    PAW_PBE Mo 08Apr2002
 POTCAR:    PAW_PBE Ta 17Jan2003
 POTCAR:    PAW_PBE Ti 08Apr2002
 POTCAR:    PAW_PBE W 08Apr2002
 POTCAR:    PAW_PBE Nb_sv 25May2007
   VRHFIN =Nb: 4p5s4d

   TITEL  = PAW_PBE Nb_sv 25May2007
   POMASS =   92.910; ZVAL   =   13.000    mass and valenz
   ENMAX  =  293.235; ENMIN  =  219.927 eV

 POTCAR:    PAW_PBE Mo 08Apr2002
   VRHFIN =Mo: 4p5s4d

   TITEL  = PAW_PBE Mo 08Apr2002
   POMASS =   95.940; ZVAL   =    6.000    mass and valenz
   ENMAX  =  224.584; ENMIN  =  168.438 eV

 POTCAR:    PAW_PBE Ta 17Jan2003
   VRHFIN =Ta:  6s5d

   TITEL  = PAW_PBE Ta 17Jan2003
   POMASS =  180.948; ZVAL   =    5.000    mass and valenz
   ENMAX  =  223.667; ENMIN  =  167.750 eV

 POTCAR:    PAW_PBE Ti 08Apr2002
   VRHFIN =Ti: d3 s1

[...]

 POTCAR:    PAW_PBE W 08Apr2002
   VRHFIN =W : 6s5d

   TITEL  = PAW_PBE W 08Apr2002
   POMASS =  183.850; ZVAL   =    6.000    mass and valenz
   ENMAX  =  223.057; ENMIN  =  167.293 eV

 Optimization of the real space projectors (new method)

 maximal supplied QI-value         = 15.68
 optimisation between [QCUT,QGAM] = [ 12.55, 25.10] = [ 44.09,176.36] Ry
 Optimized for a Real-space Cutoff    1.56 Angstroem

   l    n(q)    QCUT    max X(q) W(low)/X(q) W(high)/X(q)  e(spline)
   0     12    12.548    10.201    0.21E-04    0.36E-05    0.83E-07
   0     12    12.548     8.174    0.31E-04    0.62E-05    0.15E-06
   1     11    12.548     3.488    0.79E-05    0.23E-04    0.21E-06
   1     11    12.548     4.917    0.56E-04    0.13E-03    0.11E-05
   2     11    12.548   153.744    0.25E-03    0.10E-03    0.15E-05
   2     11    12.548   126.342    0.25E-03    0.10E-03    0.15E-05
 Optimization of the real space projectors (new method)

[...]

   l    n(q)    QCUT    max X(q) W(low)/X(q) W(high)/X(q)  e(spline)
   2     11    12.478    49.363    0.45E-03    0.34E-03    0.89E-06
   2     11    12.478    47.669    0.44E-03    0.33E-03    0.87E-06
   0     12    12.478    26.374    0.17E-03    0.37E-04    0.21E-05
   0     12    12.478    11.549    0.13E-03    0.31E-04    0.17E-05
   1     11    12.478     9.492    0.91E-05    0.64E-04    0.34E-06
 Optimization of the real space projectors (new method)

 maximal supplied QI-value         = 13.61
 optimisation between [QCUT,QGAM] = [ 12.52, 25.04] = [ 43.88,175.51] Ry
 Optimized for a Real-space Cutoff    1.56 Angstroem

   l    n(q)    QCUT    max X(q) W(low)/X(q) W(high)/X(q)  e(spline)
   2     11    12.518   130.855    0.35E-03    0.25E-03    0.12E-05
   2     11    12.518   114.007    0.35E-03    0.25E-03    0.12E-05
   0     12    12.518    84.709    0.29E-04    0.97E-05    0.60E-06
   0     12    12.518    49.163    0.27E-04    0.89E-05    0.55E-06
   1     11    12.518    15.765    0.74E-04    0.89E-04    0.15E-06
   1     11    12.518    10.638    0.55E-04    0.69E-04    0.13E-06

  PAW_PBE Nb_sv 25May2007               :
  PAW_PBE Mo 08Apr2002                  :
  PAW_PBE Ta 17Jan2003                  :
  PAW_PBE Ti 08Apr2002                  :
  PAW_PBE W 08Apr2002                   :

 POSCAR: Nb - Mo - Ta - Ti - W SQS-30 BCC
  positions in direct lattice
 exchange correlation table for  LEXCH =       14
   RHO(1)=    0.500       N(1)  =     2000
   RHO(2)=  100.500       N(2)  =     4000

 VTST: version 3.2, (02/03/18)

 CHAIN: initializing optimizer

 OPT: Using VASP Conjugate-Gradient optimizer
 CHAIN: Read ICHAIN            0

 POSCAR: Nb - Mo - Ta - Ti - W SQS-30 BCC
  positions in direct lattice

 ion  position               nearest neighbor table
   1  0.000  0.000  0.000-  12 2.76  13 2.76  21 2.76  28 2.76  24 2.76  14 2.76   4 2.76   5 2.76
                            25 3.19   7 3.19   7 3.19
   2  0.833  0.000  0.333-  28 2.76  29 2.76  13 2.76  23 2.76   4 2.76   9 2.76  14 2.76  27 2.76
                            16 3.19   8 3.19   8 3.19  15 3.19
   3  0.100  0.400  0.600-  27 2.76  10 2.76  21 2.76   5 2.76   9 2.76  17 2.76  11 2.76  22 2.76
                            29 3.19  18 3.19  18 3.19
   4  0.200  0.800  0.200-   8 2.76  25 2.76  17 2.76  22 2.76  26 2.76   7 2.76   2 2.76   1 2.76
                            29 3.19  28 3.19  28 3.19  13 3.19
   5  0.800  0.200  0.800-   6 2.76  15 2.76  18 2.76  30 2.76   3 2.76   7 2.76  19 2.76   1 2.76
                            27 3.19  14 3.19  11 3.19  12 3.19
   6  0.933  0.400  0.933-   5 2.76  11 2.76  14 2.76  21 2.76  26 2.76  10 2.76  13 2.76  25 2.76
                            30 3.19  12 3.19  30 3.19  16 3.19
   7  0.500  0.000  0.000-  14 2.76  24 2.76   4 2.76   5 2.76  12 2.76  13 2.76  21 2.76  28 2.76
                            15 3.19   8 3.19  26 3.19  30 3.19   1 3.19   1 3.19
   8  0.333  0.000  0.333-   4 2.76  23 2.76  14 2.76  29 2.76  28 2.76  27 2.76  13 2.76   9 2.76
                             7 3.19  17 3.19  20 3.19   2 3.19   2 3.19  19 3.19
   9  0.467  0.200  0.467-  18 2.76  15 2.76  16 2.76   3 2.76  19 2.76   2 2.76  20 2.76   8 2.76
                            21 3.19  17 3.19  27 3.19  27 3.19  23 3.19  14 3.19
  10  0.233  0.600  0.733-   3 2.76  23 2.76  12 2.76  30 2.76   6 2.76  18 2.76  29 2.76  24 2.76
                            17 3.19  21 3.19  19 3.19  11 3.19  11 3.19  25 3.19
  11  0.733  0.600  0.733-  18 2.76   6 2.76  29 2.76  24 2.76  30 2.76   3 2.76  23 2.76  12 2.76
                            22 3.19   5 3.19  15 3.19  10 3.19  10 3.19  26 3.19
  12  0.867  0.800  0.867-   1 2.76  25 2.76  26 2.76  10 2.76  19 2.76   7 2.76  15 2.76  11 2.76
                            28 3.19   6 3.19  24 3.19  24 3.19   5 3.19  29 3.19
  13  0.133  0.200  0.133-   1 2.76  16 2.76  30 2.76   2 2.76   7 2.76   6 2.76   8 2.76  20 2.76
                            21 3.19  25 3.19  14 3.19  14 3.19   4 3.19  27 3.19
  14  0.633  0.200  0.133-   7 2.76   6 2.76  20 2.76  30 2.76   8 2.76   1 2.76   2 2.76  16 2.76
                             5 3.19  26 3.19  13 3.19  13 3.19  28 3.19   9 3.19
  15  0.667  0.000  0.667-   5 2.76   9 2.76  24 2.76  27 2.76  21 2.76  29 2.76  12 2.76  23 2.76
                             7 3.19  18 3.19  11 3.19  19 3.19  19 3.19   2 3.19
  16  0.767  0.400  0.267-  22 2.76   9 2.76  13 2.76  26 2.76  25 2.76  17 2.76  27 2.76  14 2.76
                            18 3.19  28 3.19   2 3.19  20 3.19  20 3.19   6 3.19
  17  0.400  0.600  0.400-  23 2.76  20 2.76   4 2.76  28 2.76  29 2.76   3 2.76  16 2.76  18 2.76
                            10 3.19  26 3.19   8 3.19   9 3.19  22 3.19  22 3.19
  18  0.600  0.400  0.600-   9 2.76  11 2.76   5 2.76  21 2.76  27 2.76  22 2.76  10 2.76  17 2.76
                            30 3.19  16 3.19  15 3.19  23 3.19   3 3.19   3 3.19
  19  0.167  0.000  0.667-  21 2.76  27 2.76   9 2.76  12 2.76   5 2.76  23 2.76  24 2.76  29 2.76
                            10 3.19  15 3.19  15 3.19   8 3.19
  20  0.267  0.400  0.267-  17 2.76  27 2.76  14 2.76  22 2.76   9 2.76  25 2.76  26 2.76  13 2.76
                             8 3.19  16 3.19  16 3.19  30 3.19
  21  0.300  0.200  0.800-  30 2.76  19 2.76   3 2.76  18 2.76   6 2.76   1 2.76  15 2.76   7 2.76
                             9 3.19  13 3.19  10 3.19
  22  0.900  0.600  0.400-  29 2.76  16 2.76  28 2.76   4 2.76  23 2.76  18 2.76  20 2.76   3 2.76
                            11 3.19  25 3.19  27 3.19  17 3.19  17 3.19
  23  0.533  0.800  0.533-  17 2.76   8 2.76  10 2.76  22 2.76   2 2.76  19 2.76  11 2.76  15 2.76
                            28 3.19  18 3.19  29 3.19  29 3.19   9 3.19
  24  0.367  0.800  0.867-   7 2.76  26 2.76  25 2.76  11 2.76  15 2.76   1 2.76  19 2.76  10 2.76
                            30 3.19  12 3.19  12 3.19
  25  0.067  0.600  0.067-   4 2.76  12 2.76  24 2.76  28 2.76  16 2.76  20 2.76  30 2.76   6 2.76
                            22 3.19  26 3.19   1 3.19  13 3.19  26 3.19  10 3.19
  26  0.567  0.600  0.067-  28 2.76  12 2.76  24 2.76   6 2.76   4 2.76  16 2.76  20 2.76  30 2.76
                            17 3.19  25 3.19   7 3.19  14 3.19  25 3.19  11 3.19
  27  0.967  0.200  0.467-   3 2.76  19 2.76  20 2.76  18 2.76  15 2.76   8 2.76  16 2.76   2 2.76
                             5 3.19  22 3.19   9 3.19   9 3.19  29 3.19  13 3.19
  28  0.700  0.800  0.200-   2 2.76  26 2.76  22 2.76  17 2.76  25 2.76   1 2.76   8 2.76   7 2.76
                            23 3.19  12 3.19  16 3.19   4 3.19   4 3.19  14 3.19
  29  0.033  0.800  0.533-  22 2.76   2 2.76  11 2.76  17 2.76   8 2.76  15 2.76  10 2.76  19 2.76
                             4 3.19   3 3.19  23 3.19  23 3.19  27 3.19  12 3.19
  30  0.433  0.400  0.933-  21 2.76   5 2.76  11 2.76  10 2.76  14 2.76  13 2.76  25 2.76  26 2.76
                            18 3.19   6 3.19   7 3.19  24 3.19   6 3.19  20 3.19

IMPORTANT INFORMATION: All symmetrisations will be switched off!
NOSYMM: (Re-)initialisation of all symmetry stuff for point group C_1.

 KPOINTS: k-points

Automatic generation of k-mesh.
Space group operators:
 irot       det(A)        alpha          n_x          n_y          n_z        tau_x        tau_y        tau_z
    1     1.000000     0.000000     1.000000     0.000000     0.000000     0.000000     0.000000     0.000000

 Subroutine IBZKPT returns following result:

 Found     63 irreducible k-points:

 Following reciprocal coordinates:
            Coordinates               Weight
  0.000000  0.000000  0.000000      1.000000
  0.200000  0.000000  0.000000      2.000000
  0.400000  0.000000  0.000000      2.000000
  0.000000  0.200000  0.000000      2.000000
  0.200000  0.200000  0.000000      2.000000
  0.400000  0.200000  0.000000      2.000000
 -0.400000  0.200000  0.000000      2.000000
 -0.200000  0.200000  0.000000      2.000000
  0.000000  0.400000  0.000000      2.000000
  0.200000  0.400000  0.000000      2.000000
  0.400000  0.400000  0.000000      2.000000
 -0.400000  0.400000  0.000000      2.000000
 -0.200000  0.400000  0.000000      2.000000
  0.000000  0.000000  0.200000      2.000000
  0.200000 -0.000000  0.200000      2.000000
  0.400000  0.000000  0.200000      2.000000
 -0.400000  0.000000  0.200000      2.000000
 -0.200000  0.000000  0.200000      2.000000
  0.000000  0.200000  0.200000      2.000000
  0.200000  0.200000  0.200000      2.000000
  0.400000  0.200000  0.200000      2.000000
 -0.400000  0.200000  0.200000      2.000000
 -0.200000  0.200000  0.200000      2.000000
  0.000000  0.400000  0.200000      2.000000
  0.200000  0.400000  0.200000      2.000000
  0.400000  0.400000  0.200000      2.000000
 -0.400000  0.400000  0.200000      2.000000
 -0.200000  0.400000  0.200000      2.000000
  0.000000 -0.400000  0.200000      2.000000
  0.200000 -0.400000  0.200000      2.000000
  0.400000 -0.400000  0.200000      2.000000
 -0.400000 -0.400000  0.200000      2.000000
 -0.200000 -0.400000  0.200000      2.000000
  0.000000 -0.200000  0.200000      2.000000
  0.200000 -0.200000  0.200000      2.000000
  0.400000 -0.200000  0.200000      2.000000
 -0.400000 -0.200000  0.200000      2.000000
 -0.200000 -0.200000  0.200000      2.000000
[...]
 gamma     =   0.26582
 trial     =   0.93401
 opt step  =   1.41124  (harmonic =   1.41124) maximal distance =0.03853637
 next E    =  -346.792184   (d E  =  -0.03586)

[...]

 d Force = 0.3973926E-02[ 0.404E-04, 0.791E-02]  d Energy = 0.3980895E-02-0.697E-05
 d Force =-0.1902470E+01[-0.195E+01,-0.186E+01]  d Ewald  = 0.1152015E+01-0.305E+01

[...]

 d Force = 0.5650664E-02[ 0.352E-02, 0.778E-02]  d Energy = 0.5953129E-02-0.302E-03
 d Force =-0.2991738E+00[-0.329E+00,-0.270E+00]  d Ewald  =-0.2162014E+01 0.186E+01

 stress matrix after NEB project (eV)
     -0.24006     -0.19893     -0.03210
     -0.19893     -0.15261      0.09520
     -0.03210      0.09520     -0.16810
  FORCES: max atom, RMS     0.085209    0.038023
  FORCE total and by dimension    0.208261    0.079761
  Stress total and by dimension    0.456629    0.240060
 Conjugate gradient step on ions:
 trial-energy change:   -0.005953  1 .order   -0.005955   -0.008252   -0.003658
  (g-gl).g = 0.752E-02      g.g   = 0.813E-02  gl.gl    = 0.519E-01
 g(Force)  = 0.755E-02   g(Stress)= 0.582E-03 ortho     =-0.775E-03
 gamma     =   0.14477
 trial     =   1.02946
 opt step  =   1.84928  (harmonic =   1.84928) maximal distance =0.01936863
 next E    =  -346.799540   (d E  =  -0.00741)

[...]

 d Force = 0.1492128E-02[ 0.184E-03, 0.280E-02]  d Energy = 0.1467367E-02 0.248E-04
 d Force =-0.2806931E+00[-0.299E+00,-0.262E+00]  d Ewald  =-0.1763659E+01 0.148E+01

[...]

 d Force = 0.9542162E-03[ 0.355E-03, 0.155E-02]  d Energy =-0.9683229E-04 0.105E-02
 d Force = 0.7793303E+00[ 0.773E+00, 0.786E+00]  d Ewald  = 0.1072089E+02-0.994E+01

 stress matrix after NEB project (eV)
      1.25942      0.01898     -0.00430
      0.01898      1.16207     -0.02354
     -0.00430     -0.02354      1.13863
  FORCES: max atom, RMS     0.032105    0.017168
  FORCE total and by dimension    0.094031    0.025904
  Stress total and by dimension    2.057887    1.259423
 Conjugate gradient step on ions:
 trial-energy change:    0.000097  1 .order   -0.000093   -0.002748    0.002563
  (g-gl).g = 0.196E-02      g.g   = 0.227E-02  gl.gl    = 0.813E-02
 g(Force)  = 0.125E-02   g(Stress)= 0.102E-02 ortho     = 0.136E-03
 gamma     =   0.24164
 trial     =   1.19342
 opt step  =   0.61750  (harmonic =   0.61750) maximal distance =0.00215427
 next E    =  -346.800260   (d E  =  -0.00071)

 real space projection operators:
  max/ min on nodes  :       3886.62       3879.87

[...]

 eigenvalue-minimisations  : 25304
 total energy-change (2. order) :-0.4244358E-03  (-0.1894961E-02)
 number of electron     204.0000001 magnetization
 augmentation part       27.2362224 magnetization

[...]

 Broyden mixing:
  rms(total) = 0.70683E-02    rms(broyden)= 0.70683E-02
  rms(prec ) = 0.14735E-01
  weight for this iteration     100.00

 eigenvalues of (default mixing * dielectric matrix)
  average eigenvalue GAMMA=   0.7502
  1.3878  1.0699  0.3019  0.2412

[...]

--------------------------------------- Iteration     11(   6)  ---------------------------------------

 eigenvalue-minimisations  : 16280
 total energy-change (2. order) : 0.9611494E-04  (-0.5899766E-04)
 number of electron     204.0000001 magnetization
 augmentation part       27.2042927 magnetization

 Free energy of the ion-electron system (eV)
  alpha Z        PSCENC =      1382.05219236
  Ewald energy   TEWEN  =    -12127.74085884
  -Hartree energ DENC   =     -2812.05155539
  -exchange      EXHF   =         0.00000000
  -V(xc)+E(xc)   XCENC  =      -896.53497819
  PAW double counting   =     21733.31643894   -20172.96303999
  entropy T*S    EENTRO =         0.00419121
  eigenvalues    EBANDS =      -663.87407800
  atomic energy  EATOM  =     13210.99149945
  Solvation  Ediel_sol  =         0.00000000
  free energy    TOTEN  =      -346.80018846 eV

  energy without entropy =     -346.80437967  energy(sigma->0) =     -346.80158553

 average (electrostatic) potential at core
  the test charge radii are     1.0703  1.2296  1.2538  1.2598  1.1823
  (the norm of the test charge is              1.0000)
       1 -80.4863       2 -80.6748       3 -80.7082       4 -80.6258       5 -80.5310
       6 -80.6540       7 -35.4857       8 -35.6800       9 -35.4766      10 -35.5440
      11 -35.5613      12 -35.7078      13 -33.4459      14 -33.4191      15 -33.3909
      16 -33.3260      17 -33.2578      18 -33.4748      19 -21.9952      20 -21.8602
      21 -21.8999      22 -21.9798      23 -21.9380      24 -21.9098      25 -37.6430
      26 -37.6517      27 -37.4844      28 -37.7022      29 -37.5788      30 -37.6825

 E-fermi :   6.9367     XC(G=0): -12.7583     alpha+bet :-15.2380

[...]

 k-point    63 :      -0.2000   -0.2000    0.4000
  band No.  band energies     occupation
      1     -47.1093      2.00000
      2     -47.0908      2.00000
      3     -47.0645      2.00000
      4     -47.0273      2.00000
      5     -46.9508      2.00000
      6     -46.8690      2.00000
      7     -23.6349      2.00000
      8     -23.5629      2.00000
      9     -23.4757      2.00000
     10     -23.4029      2.00000
     11     -23.2998      2.00000
     12     -23.2763      2.00000
     13     -23.2636      2.00000
     14     -23.2457      2.00000
     15     -23.2351      2.00000
     16     -23.2000      2.00000
     17     -23.1701      2.00000
     18     -23.1588      2.00000
     19     -23.0738      2.00000
     20     -23.0492      2.00000
     21     -22.9837      2.00000
     22     -22.9519      2.00000
     23     -22.8676      2.00000
     24     -22.6681      2.00000
     25       0.2108      2.00000
     26       0.6443      2.00000
     27       1.8771      2.00000
     28       2.2856      2.00000
     29       2.4044      2.00000
     30       2.5407      2.00000
     31       2.6376      2.00000
     32       2.7223      2.00000
     33       2.7709      2.00000
     34       2.8337      2.00000
     35       3.0220      2.00000
     36       3.0920      2.00000
     37       3.1549      2.00000
     38       3.1804      2.00000
     39       3.2814      2.00000
     40       3.2933      2.00000
     41       3.3766      2.00000
     42       3.4502      2.00000
     43       3.5131      2.00000
     44       3.5470      2.00000
     45       3.5845      2.00000
     46       3.6570      2.00000
     47       3.7320      2.00000
     48       3.8215      2.00000
     49       3.9138      2.00000
     50       3.9647      2.00000
     51       4.0381      2.00000
     52       4.1351      2.00000
     53       4.1516      2.00000
     54       4.2649      2.00000
     55       4.3029      2.00000
     56       4.3747      2.00000
     57       4.4253      2.00000
     58       4.4478      2.00000
     59       4.7314      2.00000
     60       4.7939      2.00000
[...]
    114       8.2013     -0.00000
    115       8.3061     -0.00000
    116       8.3583     -0.00000
    117       8.4581     -0.00000
    118       8.4797     -0.00000
    119       8.5437     -0.00000
    120       8.5890     -0.00000
    121       8.6749     -0.00000
    122       8.7721     -0.00000
    123       8.8975     -0.00000
    124       8.9539     -0.00000
    125       9.0059     -0.00000
    126       9.0534     -0.00000
    127       9.1164     -0.00000
    128       9.2016     -0.00000

 soft charge-density along one line, spin component           1
         0         1         2         3         4         5         6         7         8         9
 total charge-density along one line

------------------------ aborting loop because EDIFF is reached ----------------------------------------

  FORCE on cell =-STRESS in cart. coord.  units (eV):
  Direction    XX          YY          ZZ          XY          YZ          ZX
  Alpha Z  1382.05219  1382.05219  1382.05219
  Ewald   -4017.13451 -4055.96444 -4054.67470   -29.93190   149.31840    -5.03143
  Hartree   965.24909   922.32285   924.32095   -37.86889   111.05822   -12.87973
  E(xc)    -922.35419  -922.35938  -922.24976     0.87052    -0.05257    -0.36463
  Local    -291.02145  -210.23116  -212.16458    68.51303  -261.96044    18.30877
  n-local  -342.33868  -343.49369  -340.09126     3.72432    -2.01045    -1.12191
  augment   245.37769   245.53896   244.94341    -0.62498     0.38603     0.20265
  Kinetic  2980.68185  2982.57959  2978.28145    -4.69307     3.26929     0.88792
  Fock        0.00000     0.00000     0.00000     0.00000     0.00000     0.00000
  Total       0.51200     0.44491     0.41770    -0.01099     0.00849     0.00165
  in kB       1.68544     1.46461     1.37501    -0.03616     0.02796     0.00542

 VOLUME and BASIS-vectors are now :
  energy-cutoff  :      600.00
  volume of cell :      486.70
      direct lattice vectors                 reciprocal lattice vectors
    -0.013440515 -0.007014076  6.379577676    -0.020412037 -0.052034627  0.156649974
     7.976741163  1.616402164  1.576319550     0.125388231 -0.000374431  0.000263757
     0.021867694  9.562496533  3.179236424    -0.021210045  0.104600326  0.000070318

  length of vectors
     6.379595690  8.290110907 10.077170356     0.166323384  0.125389068  0.106729092

 FORCES acting on ions
    electron-ion (+dipol)            ewald-force                    non-local-force                 convergence-correction
   0.622E+02 0.101E+03 -.492E+02   -.625E+02 -.101E+03 0.486E+02   0.266E+00 -.115E+00 0.582E+00   0.853E-02 -.858E-01 -.353E-01
   -.433E+02 -.210E+03 0.864E+02   0.432E+02 0.211E+03 -.863E+02   0.860E-01 -.416E+00 -.163E+00   -.786E-02 0.120E-01 -.660E-02
   -.720E+02 0.219E+03 -.849E+02   0.717E+02 -.219E+03 0.849E+02   0.353E+00 0.414E+00 0.192E-01   -.790E-01 0.684E-01 -.194E-01
   0.196E+03 -.711E+02 -.121E+03   -.196E+03 0.703E+02 0.121E+03   0.259E+00 0.770E+00 -.400E+00   0.779E-01 -.429E-01 0.581E-03
   0.552E+02 0.160E+03 0.197E+03   -.551E+02 -.159E+03 -.197E+03   -.995E-01 -.433E+00 0.694E+00   -.841E-01 -.548E-01 0.632E-01
   -.116E+03 -.137E+03 -.811E+02   0.117E+03 0.137E+03 0.811E+02   -.587E+00 -.390E+00 0.535E-01   -.223E-01 -.398E-01 -.237E-01
   0.502E+01 0.244E+02 0.257E+02   -.555E+01 -.246E+02 -.255E+02   0.529E+00 0.303E+00 -.183E+00   -.925E-03 -.218E-01 0.135E-01
   -.210E+02 -.695E+02 -.392E+02   0.210E+02 0.699E+02 0.392E+02   0.153E-01 -.388E+00 0.496E-01   -.149E-01 0.278E-01 0.118E-02
   -.564E+01 -.346E+01 -.222E+01   0.571E+01 0.333E+01 0.216E+01   -.168E-01 0.835E-01 0.595E-01   -.513E-01 0.492E-01 -.131E-01
   -.886E+02 0.442E+02 -.876E+02   0.886E+02 -.443E+02 0.875E+02   -.190E-01 0.166E+00 0.122E+00   0.415E-01 0.328E-02 -.637E-03
   -.117E+03 0.408E+02 0.862E+02   0.117E+03 -.411E+02 -.861E+02   0.133E+00 0.278E+00 -.967E-01   0.142E-01 0.504E-02 -.932E-04
   0.140E+02 0.772E+02 0.291E+02   -.143E+02 -.771E+02 -.293E+02   0.249E+00 -.353E-01 0.136E+00   0.465E-01 -.270E-01 0.225E-01
   -.675E+02 -.602E+02 -.676E+02   0.673E+02 0.599E+02 0.678E+02   0.180E+00 0.383E+00 -.297E+00   -.227E-01 -.217E-01 -.999E-02
   -.513E+02 -.908E+02 0.671E+02   0.512E+02 0.904E+02 -.674E+02   0.102E+00 0.398E+00 0.254E+00   -.235E-01 -.303E-01 0.108E-01
   0.372E+02 0.202E+02 0.549E+02   -.370E+02 -.206E+02 -.545E+02   -.199E+00 0.441E+00 -.474E+00   -.839E-02 0.121E-01 0.105E-01
   -.251E+02 -.545E+02 0.755E+00   0.250E+02 0.545E+02 -.729E+00   0.142E+00 0.739E-01 -.774E-02   -.970E-02 -.585E-02 -.175E-02
   0.266E+02 -.141E+02 -.599E+02   -.265E+02 0.141E+02 0.599E+02   -.163E+00 0.493E-01 0.821E-02   0.206E-01 0.248E-01 0.836E-02
   -.428E+02 0.610E+02 0.320E+02   0.429E+02 -.611E+02 -.320E+02   -.134E+00 0.147E+00 0.301E-01   -.126E-01 0.181E-01 0.696E-02
   0.488E+02 0.509E+02 -.432E+02   -.486E+02 -.508E+02 0.432E+02   -.138E+00 -.560E-01 0.646E-01   -.573E-02 0.130E-01 -.466E-02
   0.116E+02 -.401E+01 -.651E+00   -.112E+02 0.410E+01 0.685E+00   -.358E+00 -.819E-01 -.493E-01   -.106E-01 -.203E-02 0.222E-02
   0.211E+02 0.557E+02 -.538E+02   -.212E+02 -.555E+02 0.540E+02   0.765E-01 -.200E+00 -.231E+00   -.232E-01 -.133E-01 -.166E-01
   0.379E+02 -.974E+01 0.485E+02   -.377E+02 0.967E+01 -.487E+02   -.232E+00 0.514E-01 0.153E+00   0.123E-01 0.187E-01 -.714E-02
   0.106E+02 -.211E+02 0.176E+02   -.107E+02 0.212E+02 -.178E+02   0.231E-01 -.105E+00 0.171E+00   0.219E-01 0.254E-01 -.156E-01
   0.551E+01 0.737E+02 -.168E+02   -.569E+01 -.737E+02 0.169E+02   0.147E+00 -.285E-01 -.103E+00   0.247E-01 -.185E-01 -.138E-01
   0.582E+02 -.278E+02 -.172E+02   -.581E+02 0.282E+02 0.172E+02   -.868E-01 -.346E+00 0.513E-01   0.347E-01 -.364E-01 -.116E-01
   0.250E+02 -.334E+02 0.181E+02   -.252E+02 0.337E+02 -.180E+02   0.202E+00 -.300E+00 -.570E-01   0.283E-01 -.325E-01 0.115E-01
   -.242E+02 0.281E+02 0.156E+01   0.246E+02 -.282E+02 -.161E+01   -.302E+00 0.396E-01 0.349E-01   -.532E-01 0.596E-01 0.120E-01
   0.970E+02 -.651E+02 0.546E+02   -.971E+02 0.651E+02 -.547E+02   0.550E-01 -.104E-01 0.864E-01   0.288E-01 -.166E-01 0.820E-03
   0.268E+01 -.499E+02 -.318E+02   -.294E+01 0.497E+02 0.318E+02   0.226E+00 0.131E+00 -.169E-01   0.347E-01 0.477E-01 0.233E-01
   -.400E+02 -.334E+02 0.363E+02   0.405E+02 0.337E+02 -.363E+02   -.563E+00 -.259E+00 -.197E-01   -.200E-02 -.233E-01 0.955E-02
   -.650E-01 -.478E+00 -.446E+00   -.199E-12 0.568E-13 0.135E-12   0.145E+00 0.566E+00 0.471E+00   -.375E-01 -.874E-01 0.170E-01

 POSITION                                       TOTAL-FORCE (eV/Angst)
     -0.05384     -0.04230     -0.02790         0.001735      0.005653     -0.002310
     -0.03227      3.21724      6.36369         0.006148      0.007199     -0.014840
      3.18115      6.36756      3.17942         0.023253     -0.010427      0.007378
      6.37601      3.13728      3.18327         0.000044     -0.015135     -0.003680
      1.60818      8.00370      7.92547        -0.006190     -0.002148      0.001360
      3.26039      9.55044      9.54770         0.000398      0.003757     -0.001266
     -0.03193     -0.00868      3.20572        -0.006452      0.000712     -0.008516
      0.01644      3.24058      3.18095        -0.012129      0.003559     -0.012362
      1.57521      4.79017      4.76287         0.002866     -0.001246     -0.008600
      4.81249      7.98508      4.76078        -0.016404      0.004921      0.021124
      4.82715      7.97288      7.96912         0.007396      0.015105      0.003233
      6.36009      9.58128      9.53572        -0.014811     -0.004879     -0.009407
      1.57770      1.55113      1.63217        -0.006830      0.024061     -0.026104
      1.55549      1.57709      4.72251        -0.011777      0.005723     -0.005681
      0.03693      6.33536      6.41470        -0.008669     -0.000247     -0.004233
      3.17624      3.19967      6.36654         0.013412     -0.006132      0.015871
      4.84543      4.77955      4.76003         0.019851      0.031802      0.014553
      3.21075      6.38891      6.36133         0.003123      0.000536      0.026125
      0.01818      6.35232      3.13151         0.003475     -0.003540      0.007296
      3.17661      3.19508      3.18504        -0.000194      0.000735     -0.014833
      1.58168      8.05228      4.81548        -0.002280     -0.022204     -0.010271
      4.84285      4.78587      7.99246        -0.002493      0.004723      0.004612
      6.31518      6.48883      6.34654        -0.002632      0.009666      0.017440
      6.36123      9.55338      6.37402        -0.014563      0.003918     -0.011784
      4.78117      1.60667      1.57647         0.020548     -0.013417      0.015593
      4.78354      1.59488      4.78764         0.003375     -0.029766     -0.014667
      1.60137      4.75135      7.97622        -0.004874     -0.004438      0.002775
      6.38110      3.17918      6.34078        -0.001356     -0.017815     -0.001740
      6.39469      6.39876      3.19461         0.007712      0.015668      0.010889
      3.29295      9.58453      6.36416        -0.001685     -0.006345      0.002045
    total drift:                                0.042677      0.001072      0.041512

  FREE ENERGIE OF THE ION-ELECTRON SYSTEM (eV)
  free  energy   TOTEN  =      -346.80018846 eV

  energy  without entropy=     -346.80437967  energy(sigma->0) =     -346.80158553

 d Force =-0.2920615E-03[-0.413E-03,-0.172E-03]  d Energy = 0.7363394E-03-0.103E-02
 d Force =-0.3750389E+00[-0.377E+00,-0.374E+00]  d Ewald  =-0.5174380E+01 0.480E+01

 stress matrix after NEB project (eV)
      0.51200     -0.01099      0.00165
     -0.01099      0.44491      0.00849
      0.00165      0.00849      0.41770
  FORCES: max atom, RMS     0.040215    0.020117
  FORCE total and by dimension    0.110185    0.031802
  Stress total and by dimension    0.796839    0.511997

 reached required accuracy - stopping structural energy minimisation
 writing wavefunctions