 vasp.5.4.4.18Apr17-6-g9f103f2a35 (build Aug 09 2018 16:20:53) complex

 executed on             LinuxIFC date 2020.04.28  21:06:14

 INCAR:
 POTCAR:    PAW_PBE Nb_sv 25May2007
 POTCAR:    PAW_PBE Mo 08Apr2002
 POTCAR:    PAW_PBE Ta 17Jan2003
 POTCAR:    PAW_PBE Ti 08Apr2002
 POTCAR:    PAW_PBE V 08Apr2002
 POTCAR:    PAW_PBE Nb_sv 25May2007
   VRHFIN =Nb: 4p5s4d

   TITEL  = PAW_PBE Nb_sv 25May2007
   POMASS =   92.910; ZVAL   =   13.000    mass and valenz
   ENMAX  =  293.235; ENMIN  =  219.927 eV

 POTCAR:    PAW_PBE Mo 08Apr2002
   VRHFIN =Mo: 4p5s4d

   TITEL  = PAW_PBE Mo 08Apr2002
   POMASS =   95.940; ZVAL   =    6.000    mass and valenz
   ENMAX  =  224.584; ENMIN  =  168.438 eV

 POTCAR:    PAW_PBE Ta 17Jan2003
   VRHFIN =Ta:  6s5d

   TITEL  = PAW_PBE Ta 17Jan2003
   POMASS =  180.948; ZVAL   =    5.000    mass and valenz
   ENMAX  =  223.667; ENMIN  =  167.750 eV

 POTCAR:    PAW_PBE Ti 08Apr2002
   VRHFIN =Ti: d3 s1

[...]

 POTCAR:    PAW_PBE V 08Apr2002
   VRHFIN =V: p6 d4 s1

   TITEL  = PAW_PBE V 08Apr2002
   POMASS =   50.941; ZVAL   =    5.000    mass and valenz
   ENMAX  =  192.543; ENMIN  =  144.408 eV

 Optimization of the real space projectors (new method)

 maximal supplied QI-value         = 15.68
 optimisation between [QCUT,QGAM] = [ 12.55, 25.10] = [ 44.09,176.36] Ry
 Optimized for a Real-space Cutoff    1.56 Angstroem

   l    n(q)    QCUT    max X(q) W(low)/X(q) W(high)/X(q)  e(spline)
   0     12    12.548    10.201    0.21E-04    0.36E-05    0.83E-07
   0     12    12.548     8.174    0.31E-04    0.62E-05    0.15E-06
   1     11    12.548     3.488    0.79E-05    0.23E-04    0.21E-06
   1     11    12.548     4.917    0.56E-04    0.13E-03    0.11E-05
   2     11    12.548   153.744    0.25E-03    0.10E-03    0.15E-05
   2     11    12.548   126.342    0.25E-03    0.10E-03    0.15E-05
 Optimization of the real space projectors (new method)

[...]

   l    n(q)    QCUT    max X(q) W(low)/X(q) W(high)/X(q)  e(spline)
   2     11    12.478    49.363    0.45E-03    0.34E-03    0.89E-06
   2     11    12.478    47.669    0.44E-03    0.33E-03    0.87E-06
   0     12    12.478    26.374    0.17E-03    0.37E-04    0.21E-05
   0     12    12.478    11.549    0.13E-03    0.31E-04    0.17E-05
   1     11    12.478     9.492    0.91E-05    0.64E-04    0.34E-06
 Optimization of the real space projectors (new method)

 maximal supplied QI-value         = 13.98
 optimisation between [QCUT,QGAM] = [ 12.45, 25.03] = [ 43.38,175.46] Ry
 Optimized for a Real-space Cutoff    1.56 Angstroem

   l    n(q)    QCUT    max X(q) W(low)/X(q) W(high)/X(q)  e(spline)
   2     11    12.446    96.114    0.19E-03    0.47E-04    0.85E-06
   2     11    12.446    88.986    0.19E-03    0.46E-04    0.86E-06
   0     12    12.446    20.919    0.37E-04    0.64E-04    0.43E-06
   0     12    12.446     9.593    0.25E-04    0.48E-04    0.33E-06
   1     11    12.446    11.615    0.75E-04    0.30E-04    0.59E-06
   1     11    12.446     7.031    0.53E-04    0.23E-04    0.40E-06

  PAW_PBE Nb_sv 25May2007               :
  PAW_PBE Mo 08Apr2002                  :
  PAW_PBE Ta 17Jan2003                  :
  PAW_PBE Ti 08Apr2002                  :
  PAW_PBE V 08Apr2002                   :

 POSCAR: Nb - Mo - Ta - Ti - V SQS-30 BCC
  positions in direct lattice
 exchange correlation table for  LEXCH =       14
   RHO(1)=    0.500       N(1)  =     2000
   RHO(2)=  100.500       N(2)  =     4000

 VTST: version 3.2, (02/03/18)

 CHAIN: initializing optimizer

 OPT: Using VASP Conjugate-Gradient optimizer
 CHAIN: Read ICHAIN            0

 POSCAR: Nb - Mo - Ta - Ti - V SQS-30 BCC
  positions in direct lattice

 ion  position               nearest neighbor table
   1  0.967  0.933  0.400-  18 2.74   7 2.74  24 2.74  20 2.74  20 2.74  19 2.74   6 2.74   2 2.74
                            16 3.16   8 3.16  15 3.16  11 3.16  12 3.16
   2  0.633  0.267  0.400-  18 2.74  26 2.74   9 2.74  12 2.74  12 2.74  28 2.74  15 2.74   1 2.74
                             8 3.16
   3  0.500  0.000  0.000-  13 2.74  21 2.74  17 2.74  15 2.74   4 2.74   4 2.74  27 2.74  16 2.74
                            10 3.16  14 3.16   7 3.16
   4  0.000  0.000  0.000-  10 2.74  29 2.74  24 2.74  14 2.74   3 2.74   3 2.74   7 2.74   5 2.74
                            15 3.16  13 3.16  17 3.16  16 3.16
   5  0.100  0.200  0.800-  25 2.74  17 2.74   6 2.74  21 2.74  23 2.74  27 2.74  27 2.74   4 2.74
                            14 3.16  10 3.16
   6  0.033  0.067  0.600-  26 2.74   5 2.74  14 2.74  28 2.74  28 2.74  12 2.74   1 2.74  11 2.74
                            17 3.16
   7  0.900  0.800  0.200-  30 2.74  15 2.74   1 2.74  13 2.74   8 2.74  16 2.74  16 2.74   4 2.74
                            20 3.16   9 3.16  24 3.16  29 3.16  18 3.16   3 3.16
   8  0.800  0.600  0.400-  20 2.74  12 2.74   9 2.74  19 2.74   7 2.74  18 2.74  18 2.74  26 2.74
                            30 3.16   1 3.16  11 3.16   2 3.16  16 3.16  23 3.16
   9  0.733  0.467  0.200-  16 2.74   8 2.74   2 2.74  30 2.74  30 2.74  13 2.74  10 2.74  24 2.74
                             7 3.16  18 3.16  12 3.16  29 3.16  15 3.16  21 3.16
  10  0.667  0.333  0.000-   4 2.74  27 2.74  21 2.74  21 2.74  25 2.74  15 2.74   9 2.74  29 2.74
                             3 3.16   5 3.16  22 3.16  24 3.16  13 3.16  30 3.16
  11  0.367  0.733  0.600-  26 2.74  18 2.74  22 2.74  19 2.74  19 2.74  20 2.74  17 2.74   6 2.74
                             8 3.16  23 3.16  25 3.16   1 3.16  28 3.16  14 3.16
  12  0.133  0.267  0.400-   8 2.74  23 2.74  30 2.74   2 2.74   2 2.74   6 2.74  24 2.74  20 2.74
                            18 3.16  26 3.16   9 3.16  28 3.16  15 3.16   1 3.16
  13  0.833  0.667  0.000-   3 2.74   7 2.74  29 2.74  29 2.74   9 2.74  14 2.74  25 2.74  21 2.74
                             4 3.16  16 3.16  30 3.16  17 3.16  10 3.16  22 3.16
  14  0.933  0.867  0.800-  27 2.74   4 2.74   6 2.74  17 2.74  13 2.74  17 2.74  19 2.74  22 2.74
                             3 3.16   5 3.16  28 3.16  29 3.16  11 3.16  25 3.16
  15  0.567  0.133  0.200-   7 2.74   3 2.74  24 2.74  20 2.74  10 2.74  24 2.74   2 2.74  30 2.74
                             4 3.16  16 3.16   1 3.16  21 3.16  12 3.16   9 3.16
  16  0.400  0.800  0.200-   9 2.74  24 2.74  20 2.74  29 2.74  18 2.74   7 2.74   7 2.74   3 2.74
                             1 3.16  30 3.16  15 3.16  13 3.16   8 3.16   4 3.16
  17  0.433  0.867  0.800-   5 2.74   3 2.74  28 2.74  14 2.74  29 2.74  14 2.74  11 2.74  25 2.74
                            27 3.16   4 3.16   6 3.16  13 3.16  19 3.16  22 3.16
  18  0.300  0.600  0.400-   1 2.74   2 2.74  30 2.74  11 2.74  16 2.74   8 2.74   8 2.74  23 2.74
                            20 3.16   9 3.16  12 3.16  19 3.16   7 3.16  26 3.16
  19  0.867  0.733  0.600-  23 2.74   8 2.74  25 2.74  11 2.74  11 2.74   1 2.74  14 2.74  28 2.74
                            18 3.16  26 3.16  22 3.16  20 3.16  17 3.16
  20  0.467  0.933  0.400-   8 2.74  16 2.74  15 2.74   1 2.74   1 2.74  11 2.74  28 2.74  12 2.74
                             7 3.16  18 3.16  24 3.16  19 3.16
  21  0.167  0.333  0.000-   3 2.74   5 2.74  10 2.74  10 2.74  22 2.74  24 2.74  30 2.74  13 2.74
                            27 3.16  25 3.16  15 3.16  29 3.16   9 3.16
  22  0.267  0.533  0.800-  27 2.74  23 2.74  11 2.74  25 2.74  25 2.74  21 2.74  29 2.74  14 2.74
                            26 3.16  19 3.16  10 3.16  13 3.16  17 3.16
  23  0.200  0.400  0.600-  28 2.74  19 2.74  22 2.74  12 2.74   5 2.74  26 2.74  26 2.74  18 2.74
                            25 3.16  11 3.16  27 3.16   8 3.16
  24  0.067  0.133  0.200-  16 2.74   4 2.74  15 2.74   1 2.74  15 2.74  21 2.74  12 2.74   9 2.74
                             7 3.16  20 3.16  10 3.16  30 3.16
  25  0.767  0.533  0.800-   5 2.74  26 2.74  19 2.74  22 2.74  22 2.74  10 2.74  13 2.74  17 2.74
                            27 3.16  23 3.16  11 3.16  21 3.16  29 3.16  14 3.16
  26  0.700  0.400  0.600-   6 2.74  11 2.74  25 2.74   2 2.74  27 2.74  23 2.74  23 2.74   8 2.74
                            22 3.16  19 3.16  12 3.16  28 3.16  18 3.16
  27  0.600  0.200  0.800-  22 2.74  14 2.74  28 2.74  10 2.74  26 2.74   5 2.74   5 2.74   3 2.74
                            25 3.16  17 3.16  21 3.16  23 3.16
  28  0.533  0.067  0.600-  23 2.74  27 2.74  17 2.74   6 2.74   6 2.74   2 2.74  20 2.74  19 2.74
                            26 3.16  14 3.16  12 3.16  11 3.16
  29  0.333  0.667  0.000-   4 2.74  16 2.74  13 2.74  13 2.74  30 2.74  17 2.74  22 2.74  10 2.74
                             7 3.16   9 3.16  14 3.16  21 3.16  25 3.16
  30  0.233  0.467  0.200-   7 2.74  18 2.74  12 2.74   9 2.74   9 2.74  29 2.74  21 2.74  15 2.74
                            16 3.16   8 3.16  13 3.16  10 3.16  24 3.16

  LATTYP: Found a triclinic cell.
 ALAT       =     5.4732805519
 B/A-ratio  =     2.8722813233
 C/A-ratio  =     2.0615528128
 COS(alpha) =     0.0140733444
 COS(beta)  =     0.0808452083
 COS(gamma) =     0.8703882798

  Lattice vectors:

 A1 = (   3.1600000000,   3.1600000000,   3.1600000000)
 A2 = (  11.0600000000,  11.0600000000,   1.5800000000)
 A3 = (  -7.9000000000,   7.9000000000,   1.5800000000)

Analysis of symmetry for initial positions (statically):
 Subroutine PRICEL returns:
 Original cell was already a primitive cell.

 Routine SETGRP: Setting up the symmetry group for a
 triclinic supercell.

 Subroutine GETGRP returns: Found  1 space group operations
 (whereof  1 operations were pure point group operations)
 out of a pool of  2 trial point group operations.

The static configuration has the point symmetry C_1 .

Analysis of symmetry for dynamics (positions and initial velocities):
 Subroutine PRICEL returns:
 Original cell was already a primitive cell.

 Routine SETGRP: Setting up the symmetry group for a
 triclinic supercell.

 Subroutine GETGRP returns: Found  1 space group operations
 (whereof  1 operations were pure point group operations)
 out of a pool of  2 trial point group operations.

The dynamic configuration has the point symmetry C_1 .

 Subroutine INISYM returns: Found  1 space group operations
 (whereof  1 operations are pure point group operations),
 and found     1 'primitive' translations

 KPOINTS: k-points

Automatic generation of k-mesh.
Space group operators:
 irot       det(A)        alpha          n_x          n_y          n_z        tau_x        tau_y        tau_z
    1     1.000000     0.000000     1.000000     0.000000     0.000000     0.000000     0.000000     0.000000

 Subroutine IBZKPT returns following result:

 Found     63 irreducible k-points:

 Following reciprocal coordinates:
            Coordinates               Weight
  0.000000  0.000000  0.000000      1.000000
  0.200000  0.000000  0.000000      2.000000
  0.400000  0.000000  0.000000      2.000000
  0.000000  0.200000  0.000000      2.000000
  0.200000  0.200000 -0.000000      2.000000
  0.400000  0.200000 -0.000000      2.000000
 -0.400000  0.200000  0.000000      2.000000
 -0.200000  0.200000  0.000000      2.000000
  0.000000  0.400000  0.000000      2.000000
  0.200000  0.400000 -0.000000      2.000000
  0.400000  0.400000 -0.000000      2.000000
[...]
 total energy-change (2. order) :-0.7512498E-01  (-0.2585222E+00)
 number of electron     198.0000009 magnetization
 augmentation part       34.2496492 magnetization

[...]

 Broyden mixing:
  rms(total) = 0.95428E-02    rms(broyden)= 0.95427E-02
  rms(prec ) = 0.13751E-01
  weight for this iteration     100.00

 eigenvalues of (default mixing * dielectric matrix)
  average eigenvalue GAMMA=   0.6056
  2.4378  1.8214  0.9823  0.9823  0.6545  0.6545  0.5833  0.5833  0.3793  0.2653
  0.2653  0.2631  0.2343  0.2099  0.1324  0.1423  0.1582  0.1514

[...]

--------------------------------------- Iteration      1(  20)  ---------------------------------------

 eigenvalue-minimisations  : 18664
 total energy-change (2. order) : 0.1818177E-04  (-0.8750402E-04)
 number of electron     198.0000008 magnetization
 augmentation part       33.8185108 magnetization

 Free energy of the ion-electron system (eV)
  alpha Z        PSCENC =      1230.05567093
  Ewald energy   TEWEN  =    -11534.45390572
  -Hartree energ DENC   =     -2955.92053799
  -exchange      EXHF   =         0.00000000
  -V(xc)+E(xc)   XCENC  =      -886.58800985
  PAW double counting   =     19385.11008860   -17875.70053521
  entropy T*S    EENTRO =        -0.01250221
  eigenvalues    EBANDS =      -687.20798748
  atomic energy  EATOM  =     13005.90793652
  Solvation  Ediel_sol  =         0.00000000
  free energy    TOTEN  =      -318.80978241 eV

  energy without entropy =     -318.79728020  energy(sigma->0) =     -318.80561500

 average (electrostatic) potential at core
  the test charge radii are     1.0703  1.2296  1.2538  1.2598  1.2064
  (the norm of the test charge is              1.0000)
       1 -80.7059       2 -80.7508       3 -80.5777       4 -80.7204       5 -80.7201
       6 -80.7411       7 -35.6657       8 -35.7857       9 -35.7715      10 -35.7113
      11 -35.5678      12 -35.6825      13 -33.5213      14 -33.3611      15 -33.4809
      16 -33.5127      17 -33.3759      18 -33.4833      19 -22.0670      20 -22.0002
      21 -22.0999      22 -22.1697      23 -22.1514      24 -21.9913      25 -38.5083
      26 -38.5652      27 -38.4786      28 -38.5311      29 -38.4807      30 -38.6228

 E-fermi :   6.7329     XC(G=0): -12.6255     alpha+bet :-15.3303

 k-point     1 :       0.0000    0.0000    0.0000
  band No.  band energies     occupation
      1     -47.2275      2.00000
      2     -47.2054      2.00000
      3     -47.1598      2.00000
      4     -47.1042      2.00000
      5     -47.0700      2.00000
      6     -46.9751      2.00000
      7     -24.0037      2.00000
      8     -23.8392      2.00000
      9     -23.6776      2.00000
     10     -23.6318      2.00000
     11     -23.3999      2.00000
     12     -23.3924      2.00000
     13     -23.3864      2.00000
     14     -23.3359      2.00000
     15     -23.3184      2.00000
     16     -23.2991      2.00000
     17     -23.2677      2.00000
     18     -23.2249      2.00000
     19     -23.1884      2.00000
     20     -23.1652      2.00000
     21     -23.0179      2.00000
     22     -22.9983      2.00000
     23     -22.8427      2.00000
     24     -22.6105      2.00000
     25      -0.0884      2.00000
     26       1.2271      2.00000
     27       1.5870      2.00000
     28       2.3705      2.00000
     29       2.4861      2.00000
     30       2.5720      2.00000
     31       2.6717      2.00000
     32       2.7950      2.00000
     33       2.8506      2.00000
     34       2.9211      2.00000
     35       2.9967      2.00000
     36       3.0352      2.00000
     37       3.0979      2.00000
     38       3.1605      2.00000
     39       3.2564      2.00000
     40       3.3030      2.00000
     41       3.3903      2.00000
     42       3.4740      2.00000
     43       3.5811      2.00000
     44       3.6364      2.00000
     45       3.7241      2.00000
     46       3.7642      2.00000
     47       3.8090      2.00000
     48       3.8285      2.00000
     49       4.0133      2.00000
     50       4.0365      2.00000
     51       4.1370      2.00000
     52       4.1773      2.00000
     53       4.2690      2.00000
     54       4.3113      2.00000
     55       4.4409      2.00000
     56       4.5197      2.00000
     57       4.6065      2.00000
     58       4.6583      2.00000
     59       4.7780      2.00000
     60       4.8147      2.00000
[...]
    106       7.3447     -0.00013
    107       7.5893     -0.00000
    108       7.7429     -0.00000
    109       7.7863     -0.00000
    110       7.8727     -0.00000
    111       8.2136     -0.00000
    112       8.3777     -0.00000
    113       8.5269     -0.00000
    114       8.6227     -0.00000
    115       8.6843     -0.00000
    116       8.6906     -0.00000
    117       8.7232     -0.00000
    118       8.7407     -0.00000
    119       8.8246     -0.00000
    120       8.8521     -0.00000

[...]

 k-point    63 :      -0.2000   -0.2000    0.4000
  band No.  band energies     occupation
      1     -47.2241      2.00000
      2     -47.2000      2.00000
      3     -47.1569      2.00000
      4     -47.1028      2.00000
      5     -47.0694      2.00000
      6     -46.9882      2.00000
      7     -23.9026      2.00000
      8     -23.8285      2.00000
      9     -23.6743      2.00000
     10     -23.6269      2.00000
     11     -23.3971      2.00000
     12     -23.3934      2.00000
     13     -23.3855      2.00000
     14     -23.3387      2.00000
     15     -23.3180      2.00000
     16     -23.3048      2.00000
     17     -23.2704      2.00000
     18     -23.2271      2.00000
     19     -23.1995      2.00000
     20     -23.1678      2.00000
     21     -23.0217      2.00000
     22     -22.9994      2.00000
     23     -22.8454      2.00000
     24     -22.7433      2.00000
     25       0.4964      2.00000
     26       0.7812      2.00000
     27       2.3572      2.00000
     28       2.5549      2.00000
     29       2.6101      2.00000
     30       2.7519      2.00000
     31       2.8527      2.00000
     32       2.8710      2.00000
     33       3.0355      2.00000
     34       3.0846      2.00000
     35       3.1547      2.00000
     36       3.1969      2.00000
     37       3.2446      2.00000
     38       3.3146      2.00000
     39       3.3563      2.00000
     40       3.4501      2.00000
     41       3.4936      2.00000
     42       3.5261      2.00000
     43       3.6203      2.00000
     44       3.6734      2.00000
     45       3.7830      2.00000
     46       3.8100      2.00000
     47       4.0184      2.00000
     48       4.0571      2.00000
     49       4.1463      2.00000
     50       4.1670      2.00000
     51       4.2194      2.00000
     52       4.2936      2.00000
     53       4.3148      2.00000
     54       4.3916      2.00000
     55       4.4583      2.00000
     56       4.5469      2.00000
     57       4.6913      2.00000
     58       4.7843      2.00000
     59       4.8616      2.00000
     60       4.9459      2.00000
[...]
    106       7.2081     -0.00396
    107       7.2963     -0.00050
    108       7.3887     -0.00004
    109       7.6355     -0.00000
    110       7.7495     -0.00000
    111       7.8151     -0.00000
    112       7.8773     -0.00000
    113       7.9996     -0.00000
    114       8.4015     -0.00000
    115       8.4628     -0.00000
    116       8.5246     -0.00000
    117       8.6229     -0.00000
    118       8.6546     -0.00000
    119       8.7047     -0.00000
    120       8.7574     -0.00000

 soft charge-density along one line, spin component           1
         0         1         2         3         4         5         6         7         8         9
 total charge-density along one line

------------------------ aborting loop because EDIFF is reached ----------------------------------------

  FORCE on cell =-STRESS in cart. coord.  units (eV):
  Direction    XX          YY          ZZ          XY          YZ          ZX
  Alpha Z  1230.05567  1230.05567  1230.05567
  Ewald   -3804.42453 -3486.76244 -4243.29656  -129.12493   446.34293   308.79687
  Hartree  1041.03511  1286.89702   627.15045  -109.07924   401.71569   302.50174
  E(xc)    -893.11499  -892.85462  -893.00762    -0.05262    -0.04860    -0.37170
  Local    -366.30821  -930.40320   486.59248   238.22853  -847.84697  -609.44798
  n-local  -277.68934  -277.86752  -277.66003     0.41593     0.16876     1.17507
  augment   329.65932   329.63371   329.44110    -0.03252    -0.03116    -0.33996
  Kinetic  2742.40900  2742.01349  2741.86503    -1.50217    -0.45785    -1.95579
  Fock        0.00000     0.00000     0.00000     0.00000     0.00000     0.00000
  Total       1.62204     0.71212     1.14051    -1.14702    -0.15720     0.35824
  in kB       5.49059     2.41051     3.86062    -3.88266    -0.53213     1.21265

 VOLUME and BASIS-vectors are now :
  energy-cutoff  :      600.00
  volume of cell :      473.32
      direct lattice vectors                 reciprocal lattice vectors
    -3.160000000 -3.160000000 -3.160000000    -0.137130802 -0.126582278 -0.052742616
     1.580000000  1.580000000 -7.900000000     0.042194093  0.063291139 -0.105485232
     7.900000000 -7.900000000 -1.580000000     0.063291139 -0.063291139  0.000000000

  length of vectors
     5.473280552  8.209920828 11.283456917     0.193932240  0.130050928  0.089507187

 FORCES acting on ions
    electron-ion (+dipol)            ewald-force                    non-local-force                 convergence-correction
   0.152E+03 0.413E+02 -.195E+03   -.152E+03 -.407E+02 0.195E+03   0.384E+00 -.244E+00 -.135E+00   -.501E-01 0.765E-01 -.103E+00
   -.811E+02 -.190E+03 0.112E+03   0.815E+02 0.190E+03 -.112E+03   0.981E-02 -.127E-01 -.197E+00   -.819E-01 0.246E-01 0.652E-01
   -.253E+02 0.820E+02 -.280E+02   0.250E+02 -.815E+02 0.279E+02   0.125E+00 -.140E-01 -.226E+00   0.629E-01 -.108E+00 0.460E-01
   -.615E+02 0.106E+03 -.805E+02   0.618E+02 -.106E+03 0.806E+02   -.763E-01 0.611E-01 -.205E+00   0.447E-01 -.115E+00 0.696E-01
   -.233E+02 -.110E+03 0.254E+03   0.235E+02 0.111E+03 -.255E+03   0.268E-01 0.269E+00 -.185E+00   -.213E+00 -.161E+00 0.235E+00
   0.390E+01 0.776E+02 -.280E+02   -.431E+01 -.774E+02 0.276E+02   0.346E+00 0.471E-01 0.282E-01   -.145E+00 0.117E+00 -.256E-01
   0.118E+02 0.482E+02 -.931E+02   -.117E+02 -.486E+02 0.932E+02   -.117E+00 -.147E+00 0.130E+00   0.172E-01 0.565E-02 -.242E-01
   -.163E+02 0.585E+01 0.129E+02   0.161E+02 -.616E+01 -.125E+02   -.250E+00 -.493E-01 0.224E+00   -.554E-01 0.347E-01 0.137E-01
   0.403E+02 -.506E+02 0.430E+02   -.404E+02 0.509E+02 -.429E+02   -.525E-01 0.137E-01 -.125E+00   0.326E-01 -.383E-01 0.444E-02
   -.844E+02 -.639E+02 0.108E+03   0.842E+02 0.645E+02 -.109E+03   0.249E+00 0.258E-01 -.130E+00   0.103E+00 -.123E+00 0.726E-01
   0.321E+02 0.936E+02 -.714E+02   -.322E+02 -.939E+02 0.719E+02   -.962E-01 -.164E+00 -.222E+00   -.280E-01 0.134E+00 -.377E-01
   0.383E+02 -.516E+02 0.868E+02   -.385E+02 0.518E+02 -.873E+02   0.303E+00 -.300E-01 -.223E+00   -.377E-01 -.715E-02 0.355E-01
   0.553E+02 0.375E+02 -.804E+02   -.553E+02 -.375E+02 0.806E+02   -.997E-02 -.484E+00 0.375E+00   0.106E+00 -.620E-01 -.797E-01
   0.529E+02 0.229E+02 -.133E+03   -.526E+02 -.228E+02 0.133E+03   -.132E+00 0.254E+00 0.920E-01   0.289E-01 0.539E-02 -.774E-01
   -.381E+02 -.364E+02 0.127E+02   0.378E+02 0.368E+02 -.128E+02   0.728E-01 0.156E+00 -.398E-01   0.318E-01 -.395E-01 0.196E-01
   0.270E+00 0.610E+02 -.456E+02   -.701E+00 -.609E+02 0.460E+02   -.287E+00 -.142E+00 0.380E+00   0.168E-01 -.205E-02 -.159E-01
   0.101E+03 0.479E+02 -.986E+02   -.102E+03 -.480E+02 0.993E+02   -.377E+00 -.633E-01 0.316E-01   0.726E-01 0.467E-01 -.716E-01
   -.535E+01 0.523E+01 -.367E+01   0.561E+01 -.532E+01 0.333E+01   0.117E+00 -.267E+00 0.161E+00   -.258E-01 0.260E-01 0.480E-02
   -.167E+02 0.470E+02 -.649E+02   0.170E+02 -.470E+02 0.653E+02   -.159E+00 0.675E-01 0.185E+00   -.556E-01 0.699E-01 -.627E-01
   0.307E+02 0.926E+01 -.382E+02   -.302E+02 -.969E+01 0.383E+02   -.602E-02 -.169E+00 0.876E-01   0.450E-02 0.434E-01 -.247E-01
   -.549E+02 -.174E+02 0.951E+02   0.551E+02 0.172E+02 -.955E+02   -.218E+00 0.931E-01 -.683E-01   0.314E-01 -.799E-01 0.204E-01
   -.702E+01 -.863E+01 0.207E+02   0.687E+01 0.847E+01 -.209E+02   -.235E+00 0.111E+00 -.502E-01   0.275E-02 0.640E-02 -.111E-01
   -.276E+02 -.246E+02 0.771E+02   0.274E+02 0.245E+02 -.767E+02   0.106E+00 -.381E-01 0.184E-01   -.918E-01 0.292E-01 0.363E-01
   0.444E+01 -.537E+01 0.554E+02   -.404E+01 0.519E+01 -.561E+02   0.208E+00 0.983E-01 -.220E+00   0.269E-01 -.401E-01 0.395E-02
   -.230E+02 -.359E+02 0.474E+02   0.229E+02 0.356E+02 -.471E+02   0.220E+00 -.142E-01 0.379E+00   0.107E-01 0.185E-02 -.858E-02
   -.828E+02 -.347E+02 0.910E+02   0.837E+02 0.347E+02 -.917E+02   -.139E+00 0.741E-01 0.187E+00   -.106E+00 0.674E-01 0.824E-01
   -.196E+02 -.759E+02 0.607E+02   0.195E+02 0.763E+02 -.610E+02   0.107E+00 -.422E-01 -.939E-02   -.291E-01 -.202E-01 0.898E-01
   -.189E+02 0.277E+02 -.357E+02   0.191E+02 -.283E+02 0.353E+02   -.100E-01 0.980E-01 -.132E+00   -.317E-01 0.581E-01 -.553E-02
   0.480E+02 0.343E+02 -.871E+02   -.483E+02 -.345E+02 0.876E+02   -.570E-01 -.126E+00 0.129E+00   0.103E+00 -.256E-01 -.467E-01
   0.152E+02 -.421E+02 0.495E+01   -.152E+02 0.424E+02 -.502E+01   0.144E+00 0.213E-01 -.101E+00   0.333E-01 -.375E-01 0.746E-02
   0.393E-01 0.738E+00 -.358E+00   -.320E-13 -.924E-13 -.213E-13   0.197E+00 -.617E+00 0.138E+00   -.223E+00 -.112E+00 0.212E+00

 POSITION                                       TOTAL-FORCE (eV/Angst)
      1.58000     -4.74000    -11.06000         0.090487      0.446709      0.227070
      1.58000     -4.74000     -4.74000         0.349280     -0.164948      0.017982
     -1.58000     -1.58000     -1.58000        -0.110607      0.398132     -0.250071
      0.00000      0.00000      0.00000         0.254750     -0.031339     -0.050396
      6.32000     -6.32000     -3.16000        -0.028936      0.745020     -0.604858
      4.74000     -4.74000     -1.58000        -0.206910      0.285911     -0.358445
      0.00000     -3.16000     -9.48000        -0.029547     -0.577373      0.197494
      1.58000     -4.74000     -7.90000        -0.522300     -0.322950      0.582231
      0.00000     -3.16000     -6.32000        -0.190891      0.278565      0.056603
     -1.58000     -1.58000     -4.74000         0.170916      0.573552     -0.602609
      4.74000     -4.74000     -7.90000        -0.167380     -0.422978      0.267382
      3.16000     -3.16000     -3.16000         0.127386      0.175219     -0.627499
     -1.58000     -1.58000     -7.90000         0.045730     -0.502309      0.498051
      4.74000     -7.90000    -11.06000         0.198034      0.380656     -0.050775
     -0.00000     -3.16000     -3.16000        -0.207436      0.505283     -0.127491
      1.58000     -1.58000     -7.90000        -0.702385     -0.106359      0.790121
      6.32000     -6.32000     -9.48000        -0.895981     -0.142816      0.639201
      3.16000     -3.16000     -6.32000         0.347534     -0.329582     -0.174680
      3.16000     -6.32000     -9.48000         0.088586      0.205530      0.531126
      3.16000     -3.16000     -9.48000         0.563019     -0.561394      0.115299
     -0.00000     -0.00000     -3.16000        -0.035727     -0.171761     -0.426157
      6.32000     -6.32000     -6.32000        -0.386244     -0.043202     -0.243134
      4.74000     -4.74000     -4.74000        -0.197916     -0.102156      0.498793
      1.58000     -1.58000     -1.58000         0.631125     -0.120377     -0.863370
      4.74000     -7.90000     -7.90000         0.047161     -0.343780      0.607474
      3.16000     -6.32000     -6.32000         0.588812      0.097487     -0.397928
      4.74000     -7.90000     -4.74000         0.009068      0.297316     -0.229652
      3.16000     -6.32000     -3.16000         0.195092     -0.444871     -0.481833
      0.00000      0.00000     -6.32000        -0.250951     -0.264902      0.623983
      1.58000     -1.58000     -4.74000         0.226232      0.263715     -0.163914
    total drift:                                0.013688      0.009057     -0.008667

  FREE ENERGIE OF THE ION-ELECTRON SYSTEM (eV)
  free  energy   TOTEN  =      -318.80978241 eV

  energy  without entropy=     -318.79728020  energy(sigma->0) =     -318.80561500

 stress matrix after NEB project (eV)
      1.62204     -1.14702      0.35824
     -1.14702      0.71212     -0.15720
      0.35824     -0.15720      1.14051
  FORCES: max atom, RMS     1.109845    0.665755
  FORCE total and by dimension    3.646491    0.895981
  Stress total and by dimension    2.715933    1.622038
 writing wavefunctions